10
Lattice="3.940949890606662 0.0 0.0 0.0 3.940949890606662 0.0 0.0 0.0 26.940967945119528" Properties=species:S:1:pos:R:3:forces:R:3 tau=tau99 tau_p=9 tau_q=9 stage=B constraint=xy_fixed_z_free force_label=raw_dft energy=-15500.272077050753 free_energy=-15500.272077050753 stress="0.009456105278939152 0.0003654267308493818 -0.006756721890252766 0.0003654267308493818 0.009165967472536125 -0.00674937662933117 -0.006756721890252766 -0.00674937662933117 -0.0018858957416196737" pbc="T T T"
Sr       0.00003626       0.00009419      10.75260867       0.00211962       0.00218081       0.09859744
Sr       3.54675677       3.54684071      14.64522241       0.35256972       0.35297493       0.67572705
Ti       1.97047258       1.97057465      12.38212169      -0.33997260      -0.34056395      -0.15348843
Ti       1.57610567       1.57631572      16.28444791       0.04815342       0.04779347      -0.01419352
O        0.00000906       1.97050529      12.45001441      -0.90674915       0.27253231      -0.29866629
O        3.54704288       1.57638350      16.39256827       0.00998077       0.02018522      -0.03417279
O        1.97049386       3.94093294      12.44909065       0.27288352      -0.90488510      -0.29620625
O        1.57647651       3.54685924      16.37955485       0.02095706       0.01084003       0.00373016
O        1.97043435       1.97038588      10.49176941      -0.16386129      -0.16349028       0.08195726
O        1.57644656       1.57633188      14.44792112       0.70391894       0.70243258      -0.06328488
10
Lattice="3.940949890606662 0.0 0.0 0.0 3.940949890606662 0.0 0.0 0.0 26.940967945119528" Properties=species:S:1:pos:R:3:forces:R:3 tau=tau99 tau_p=9 tau_q=9 stage=B constraint=xy_fixed_z_free force_label=raw_dft energy=-15500.28460898148 free_energy=-15500.28460898148 stress="0.009066806450094585 0.00035716331231258673 -0.00659879878043846 0.00035716331231258673 0.008799622584071545 -0.006592371677132063 -0.00659879878043846 -0.006592371677132063 -0.002008010704441201" pbc="T T T"
Sr       0.00003612       0.00009431      10.75463802       0.00188950       0.00195995       0.08374751
Sr       3.54675692       3.54684090      14.65913032       0.33379270       0.33414082       0.53646299
Ti       1.97047269       1.97057450      12.37896290      -0.32495042      -0.32548598      -0.16349748
Ti       1.57610576       1.57631578      16.28415579       0.04822721       0.04789734      -0.07205902
O        0.00000902       1.97050521      12.44386740      -0.89348946       0.27805144      -0.24168550
O        3.54704290       1.57638358      16.39186500       0.00934056       0.01964220      -0.00817919
O        1.97049401       3.94093312      12.44299421       0.27835714      -0.89174239      -0.23935711
O        1.57647643       3.54685933      16.37963158       0.02035285       0.01013503       0.02863540
O        1.97043419       1.97038596      10.49345621      -0.16368414      -0.16336661       0.02633735
O        1.57644658       1.57633185      14.44661854       0.69016379       0.68876846       0.04959504
10
Lattice="3.940949890606662 0.0 0.0 0.0 3.940949890606662 0.0 0.0 0.0 26.940967945119528" Properties=species:S:1:pos:R:3:forces:R:3 tau=tau99 tau_p=9 tau_q=9 stage=B constraint=xy_fixed_z_free force_label=raw_dft energy=-15500.295803200574 free_energy=-15500.295803200574 stress="0.008614154745801256 0.0003498180513909911 -0.0064243488335505635 0.0003498180513909911 0.0083726792930038 -0.006417921730244168 -0.0064243488335505635 -0.006417921730244168 -0.002335792973067405" pbc="T T T"
Sr       0.00003612       0.00009431      10.75700448       0.00176146       0.00183371       0.06293315
Sr       3.54675692       3.54684090      14.67442871       0.31408082       0.31436313       0.40799191
Ti       1.97047269       1.97057450      12.37446625      -0.31159765      -0.31209104      -0.15313542
Ti       1.57610576       1.57631578      16.28234295       0.04788603       0.04759241      -0.04409802
O        0.00000902       1.97050521      12.43699343      -0.87503382       0.28149132      -0.18374980
O        3.54704290       1.57638358      16.39155629       0.00850007       0.01907861       0.00775753
O        1.97049401       3.94093312      12.43618514       0.28174586      -0.87343151      -0.18153762
O        1.57647643       3.54685933      16.38034594       0.01972602       0.00921972       0.04283021
O        1.97043419       1.97038596      10.49436150      -0.16234845      -0.16206409      -0.03018347
O        1.57644658       1.57633185      14.44763528       0.67527968       0.67400724       0.07119128
10
Lattice="3.940949890606662 0.0 0.0 0.0 3.940949890606662 0.0 0.0 0.0 26.940967945119528" Properties=species:S:1:pos:R:3:forces:R:3 tau=tau99 tau_p=9 tau_q=9 stage=B constraint=xy_fixed_z_free force_label=raw_dft energy=-15500.307629131943 free_energy=-15500.307629131943 stress="0.007924618376786468 0.0003424727904693955 -0.006170019174140315 0.0003424727904693955 0.0077262963319033855 -0.006164510228449119 -0.006170019174140315 -0.006164510228449119 -0.002784772046899937" pbc="T T T"
Sr       0.00003612       0.00009431      10.76051385       0.00165219       0.00172495       0.02329162
Sr       3.54675692       3.54684090      14.69737629       0.28608871       0.28628077       0.22692222
Ti       1.97047269       1.97057450      12.36668901      -0.29391977      -0.29432703      -0.12780851
Ti       1.57610576       1.57631578      16.28015969       0.04742425       0.04722037       0.01070890
O        0.00000902       1.97050521      12.42669383      -0.84645036       0.28446480      -0.10541574
O        3.54704290       1.57638358      16.39159689       0.00720475       0.01819827       0.03208942
O        1.97049401       3.94093312      12.42599924       0.28465969      -0.84509821      -0.10344165
O        1.57647643       3.54685933      16.38218179       0.01875388       0.00779327       0.06314809
O        1.97043419       1.97038596      10.49385152      -0.15941945      -0.15919654      -0.09418671
O        1.57644658       1.57633185      14.45025785       0.65400560       0.65293962       0.07469235
10
Lattice="3.940949890606662 0.0 0.0 0.0 3.940949890606662 0.0 0.0 0.0 26.940967945119528" Properties=species:S:1:pos:R:3:forces:R:3 tau=tau99 tau_p=9 tau_q=9 stage=B constraint=xy_fixed_z_free force_label=raw_dft energy=-15500.315273626014 free_energy=-15500.315273626014 stress="0.0069017907934542785 0.0003342093719326004 -0.005808265073751731 0.0003342093719326004 0.006776003200171954 -0.005804592443290933 -0.005808265073751731 -0.005804592443290933 -0.0032713955829556467" pbc="T T T"
Sr       0.00003612       0.00009431      10.76513521       0.00162699       0.00169821      -0.05078957
Sr       3.54675692       3.54684090      14.73150497       0.24808394       0.24818216      -0.02753754
Ti       1.97047269       1.97057450      12.35320704      -0.27179954      -0.27210885      -0.08003741
Ti       1.57610576       1.57631578      16.27880593       0.04693780       0.04687327       0.08334642
O        0.00000902       1.97050521      12.41122762      -0.80325968       0.28524847      -0.00371370
O        3.54704290       1.57638358      16.39294430       0.00528516       0.01685538       0.07320419
O        1.97049401       3.94093312      12.41073674       0.28537291      -0.80233511      -0.00220883
O        1.57647643       3.54685933      16.38673330       0.01727447       0.00564203       0.09522183
O        1.97043419       1.97038596      10.48950633      -0.15351260      -0.15336630      -0.15247644
O        1.57644658       1.57633185      14.45551852       0.62399028       0.62331048       0.06499132
10
Lattice="3.940949890606662 0.0 0.0 0.0 3.940949890606662 0.0 0.0 0.0 26.940967945119528" Properties=species:S:1:pos:R:3:forces:R:3 tau=tau99 tau_p=9 tau_q=9 stage=B constraint=xy_fixed_z_free force_label=raw_dft energy=-15500.316541948616 free_energy=-15500.316541948616 stress="0.006865982646461499 0.00033329121431740095 -0.005755011932070163 0.00033329121431740095 0.006759476363098363 -0.005751339301609365 -0.005755011932070163 -0.005751339301609365 -0.0030547103857685755" pbc="T T T"
Sr       0.00003612       0.00009431      10.76474162       0.00163419       0.00170670      -0.06680472
Sr       3.54675692       3.54684090      14.73636987       0.24221232       0.24229536      -0.05199002
Ti       1.97047269       1.97057450      12.34950406      -0.27053816      -0.27081815      -0.06626119
Ti       1.57610576       1.57631578      16.28049434       0.04727822       0.04728002       0.08101880
O        0.00000902       1.97050521      12.40867178      -0.79560242       0.28441337       0.00045637
O        3.54704290       1.57638358      16.39467306       0.00495220       0.01656485       0.07708090
O        1.97049401       3.94093312      12.40824386       0.28453242      -0.79480666       0.00178949
O        1.57647643       3.54685933      16.38941277       0.01696208       0.00522577       0.09584970
O        1.97043419       1.97038596      10.48577400      -0.15142821      -0.15129734      -0.12750332
O        1.57644658       1.57633185      14.45743461       0.61999710       0.61943583       0.05636372
10
Lattice="3.940949890606662 0.0 0.0 0.0 3.940949890606662 0.0 0.0 0.0 26.940967945119528" Properties=species:S:1:pos:R:3:forces:R:3 tau=tau99 tau_p=9 tau_q=9 stage=B constraint=xy_fixed_z_free force_label=raw_dft energy=-15500.31824878267 free_energy=-15500.31824878267 stress="0.006926581049064663 0.0003342093719326004 -0.00571002220892539 0.0003342093719326004 0.006843946863696713 -0.005707267736079792 -0.00571002220892539 -0.005707267736079792 -0.0026690841873848064" pbc="T T T"
Sr       0.00003612       0.00009431      10.76312086       0.00165142       0.00172341      -0.07971731
Sr       3.54675692       3.54684090      14.74019362       0.23692947       0.23700300      -0.06040601
Ti       1.97047269       1.97057450      12.34498250      -0.27098887      -0.27124187      -0.04616699
Ti       1.57610576       1.57631578      16.28348604       0.04781609       0.04789862       0.07124578
O        0.00000902       1.97050521      12.40615323      -0.78785286       0.28310468      -0.00418010
O        3.54704290       1.57638358      16.39761715       0.00465087       0.01626531       0.07628103
O        1.97049401       3.94093312      12.40580656       0.28321241      -0.78721831      -0.00307890
O        1.57647643       3.54685933      16.39355325       0.01663684       0.00481825       0.09080365
O        1.97043419       1.97038596      10.48042262      -0.14877483      -0.14866581      -0.08788365
O        1.57644658       1.57633185      14.45998413       0.61671946       0.61631271       0.04310274
10
Lattice="3.940949890606662 0.0 0.0 0.0 3.940949890606662 0.0 0.0 0.0 26.940967945119528" Properties=species:S:1:pos:R:3:forces:R:3 tau=tau99 tau_p=9 tau_q=9 stage=B constraint=xy_fixed_z_free force_label=raw_dft energy=-15500.320471816674 free_energy=-15500.320471816674 stress="0.007120312305871748 0.00033329121431740095 -0.005657687224859021 0.00033329121431740095 0.007073486267496576 -0.005655850909628623 -0.005657687224859021 -0.005655850909628623 -0.0020116833349019987" pbc="T T T"
Sr       0.00003612       0.00009431      10.75946266       0.00162622       0.00170001      -0.08931961
Sr       3.54675692       3.54684090      14.74422408       0.23071023       0.23076936      -0.05691265
Ti       1.97047269       1.97057450      12.33851309      -0.27283955      -0.27306118      -0.01575752
Ti       1.57610576       1.57631578      16.28857955       0.04863756       0.04886587       0.05358847
O        0.00000902       1.97050521      12.40263614      -0.77745017       0.28104343      -0.01575263
O        3.54704290       1.57638358      16.40277924       0.00428937       0.01583234       0.06904595
O        1.97049401       3.94093312      12.40241268       0.28114062      -0.77705577      -0.01500624
O        1.57647643       3.54685933      16.40048907       0.01617918       0.00428757       0.07721511
O        1.97043419       1.97038596      10.47239555      -0.14502102      -0.14494028      -0.03188322
O        1.57644658       1.57633185      14.46382791       0.61272782       0.61255813       0.02478261
10
Lattice="3.940949890606662 0.0 0.0 0.0 3.940949890606662 0.0 0.0 0.0 26.940967945119528" Properties=species:S:1:pos:R:3:forces:R:3 tau=tau99 tau_p=9 tau_q=9 stage=B constraint=xy_fixed_z_free force_label=raw_dft energy=-15500.322788049669 free_energy=-15500.322788049669 stress="0.007514201922792313 0.0003314548990870021 -0.005586989088488664 0.0003314548990870021 0.0075233834989443076 -0.0055860709308734645 -0.005586989088488664 -0.0055860709308734645 -0.0009502931317314325" pbc="T T T"
Sr       0.00003612       0.00009431      10.75196084       0.00150564       0.00158303      -0.09033211
Sr       3.54675692       3.54684090      14.74913660       0.22266756       0.22270947      -0.03785178
Ti       1.97047269       1.97057450      12.32893661      -0.27650158      -0.27667178       0.02498778
Ti       1.57610576       1.57631578      16.29717556       0.04996425       0.05040468       0.02623862
O        0.00000902       1.97050521      12.39684487      -0.76165820       0.27779561      -0.03261676
O        3.54704290       1.57638358      16.41188297       0.00381706       0.01516977       0.05021982
O        1.97049401       3.94093312      12.39681735       0.27788252      -0.76163223      -0.03246635
O        1.57647643       3.54685933      16.41233973       0.01548524       0.00355352       0.04862136
O        1.97043419       1.97038596      10.46035494      -0.13962119      -0.13957953       0.04166755
O        1.57644658       1.57633185      14.46987049       0.60645870       0.60666696       0.00153186
10
Lattice="3.940949890606662 0.0 0.0 0.0 3.940949890606662 0.0 0.0 0.0 26.940967945119528" Properties=species:S:1:pos:R:3:forces:R:3 tau=tau99 tau_p=9 tau_q=9 stage=B constraint=xy_fixed_z_free force_label=raw_dft energy=-15500.323774462333 free_energy=-15500.323774462333 stress="0.007893401017869686 0.0003268641110110048 -0.005538326734883092 0.0003268641110110048 0.007945736001936054 -0.005538326734883092 -0.005538326734883092 -0.005538326734883092 -0.00012303312043672652" pbc="T T T"
Sr       0.00003612       0.00009431      10.74406754       0.00131769       0.00139842      -0.07390225
Sr       3.54675692       3.54684090      14.75214128       0.21762537       0.21765802      -0.01545387
Ti       1.97047269       1.97057450      12.32224489      -0.27984890      -0.27999288       0.04618653
Ti       1.57610576       1.57631578      16.30439354       0.05087416       0.05147657       0.00690598
O        0.00000902       1.97050521      12.39153143      -0.74899732       0.27536849      -0.03831946
O        3.54704290       1.57638358      16.42003705       0.00353064       0.01462418       0.02856676
O        1.97049401       3.94093312      12.39165696       0.27545231      -0.74924697      -0.03864291
O        1.57647643       3.54685933      16.42254923       0.01492217       0.00306707       0.01980109
O        1.97043419       1.97038596      10.45208104      -0.13597408      -0.13595891       0.07535980
O        1.57644658       1.57633185      14.47461701       0.60109769       0.60160574      -0.01050167
10
Lattice="3.940949890606662 0.0 0.0 0.0 3.940949890606662 0.0 0.0 0.0 26.940967945119528" Properties=species:S:1:pos:R:3:forces:R:3 tau=tau99 tau_p=9 tau_q=9 stage=B constraint=xy_fixed_z_free force_label=raw_dft energy=-15500.324208619963 free_energy=-15500.324208619963 stress="0.008099068323674363 0.00032227332293500755 -0.005524554370655101 0.00032227332293500755 0.008166093829583923 -0.005524554370655101 -0.005524554370655101 -0.005524554370655101 0.00019648572965268266" pbc="T T T"
Sr       0.00003612       0.00009431      10.73907903       0.00114723       0.00122847      -0.05125931
Sr       3.54675692       3.54684090      14.75285833       0.21655091       0.21658639      -0.00321851
Ti       1.97047269       1.97057450      12.32051372      -0.28186207      -0.28198420       0.04243631
Ti       1.57610576       1.57631578      16.30761069       0.05108396       0.05172957       0.00098807
O        0.00000902       1.97050521      12.38852716      -0.74332932       0.27458662      -0.03030251
O        3.54704290       1.57638358      16.42411574       0.00345222       0.01437684       0.01474965
O        1.97049401       3.94093312      12.38870848       0.27467249      -0.74367462      -0.03080619
O        1.57647643       3.54685933      16.42727511       0.01467354       0.00292026       0.00378595
O        1.97043419       1.97038596      10.45012902      -0.13505105      -0.13504359       0.06446553
O        1.57644658       1.57633185      14.47650269       0.59866234       0.59927427      -0.01083874
10
Lattice="3.940949890606662 0.0 0.0 0.0 3.940949890606662 0.0 0.0 0.0 26.940967945119528" Properties=species:S:1:pos:R:3:forces:R:3 tau=tau99 tau_p=9 tau_q=9 stage=B constraint=xy_fixed_z_free force_label=raw_dft energy=-15500.324573660677 free_energy=-15500.324573660677 stress="0.008281781689099054 0.0003158462196286114 -0.005524554370655101 0.0003158462196286114 0.008348807195008615 -0.005524554370655101 -0.005524554370655101 -0.005524554370655101 0.00035624515469738727" pbc="T T T"
Sr       0.00003612       0.00009431      10.73368554       0.00089346       0.00097419      -0.01501910
Sr       3.54675692       3.54684090      14.75265840       0.21725282       0.21729138       0.00629175
Ti       1.97047269       1.97057450      12.32108041      -0.28404339      -0.28416475       0.02016542
Ti       1.57610576       1.57631578      16.30984130       0.05109425       0.05175682      -0.00166710
O        0.00000902       1.97050521      12.38559466      -0.73930786       0.27445678      -0.00997125
O        3.54704290       1.57638358      16.42746916       0.00344245       0.01418786       0.00071785
O        1.97049401       3.94093312      12.38579209       0.27455088      -0.73967141      -0.01055464
O        1.57647643       3.54685933      16.43060998       0.01449125       0.00290098      -0.01010932
O        1.97043419       1.97038596      10.45108498      -0.13532230      -0.13531485       0.02426530
O        1.57644658       1.57633185      14.47750344       0.59694819       0.59758325      -0.00411942
