10
Lattice="3.940949890606662 0.0 0.0 0.0 3.940949890606662 0.0 0.0 0.0 26.940967945119528" Properties=species:S:1:pos:R:3:forces:R:3 tau=tau92 tau_p=9 tau_q=2 stage=A constraint=rigid_scf force_label=raw_dft energy=-15499.601792229512 free_energy=-15499.601792229512 stress="0.008878584138978698 -0.0008915310443586677 -0.0055741348818758715 -0.0008915310443586677 0.010971065344018248 0.013118636005969764 -0.0055741348818758715 0.013118636005969764 -0.006709895851877593" pbc="T T T"
Sr       0.00003626       0.00009419      10.75260867       0.00193630       0.00043452       0.19459214
Sr       3.54675677       0.78817579      14.64522241       0.45208093      -0.70812603       1.63965959
Ti       1.97047258       1.97057465      12.38212169      -0.55360145       0.59820983      -0.63522317
Ti       1.57610567       2.75860069      16.28444791       0.03812457      -0.12210632      -0.01589045
O        0.00000906       1.97050529      12.45001441      -0.67271269      -0.27667487      -0.41043317
O        3.54704288       2.75866847      16.39256827       0.00748140      -0.03939599      -0.04895997
O        1.97049386       3.94093294      12.44909065       0.40850356       1.64459122      -1.02311188
O        1.57647651       0.78819431      16.37955485      -0.00584823      -0.00434234      -0.04498608
O        1.97043435       1.97038588      10.49176941      -0.12782342       0.27097010       0.17292751
O        1.57644656       2.75861684      14.44792112       0.45185878      -1.36356065       0.17142496
