10
Lattice="3.940949890606662 0.0 0.0 0.0 3.940949890606662 0.0 0.0 0.0 26.940967945119528" Properties=species:S:1:pos:R:3:forces:R:3 tau=tau44 tau_p=4 tau_q=4 stage=B constraint=xy_fixed_z_free force_label=raw_dft energy=-15499.245390040878 free_energy=-15499.245390040878 stress="0.01120152290543331 -9.181576151994517e-07 0.0006344469121028211 -9.181576151994517e-07 0.010518413639724918 0.0006344469121028211 0.0006344469121028211 0.0006344469121028211 -0.0001652683707359013" pbc="T T T"
Sr       0.00003626       0.00009419      10.05995086      -0.00001234       0.00006042      -0.03654258
Sr       1.57628183       1.57636577      15.56713395      -0.04686813      -0.04651923       0.07021451
Ti       1.97047258       1.97057465      11.49858674       0.04221649       0.04190075       0.01676436
Ti       3.54658061       3.54679066      17.03125910      -0.00283978      -0.00320694      -0.04347144
O        0.00000906       1.97050529      11.64600861       0.04639504      -0.02769567      -0.01459590
O        1.57656794       3.54685845      17.17957281       0.00054456       0.00265492      -0.03869407
O        1.97049386       3.94093294      11.64490948      -0.02757791       0.04614513      -0.00963598
O        3.54695145       1.57638429      17.14837743       0.00310821       0.00074896       0.09147882
O        1.97043435       1.97038588       9.68371429       0.00519131       0.00542966       0.01839650
O        3.54692150       3.54680682      15.21580615      -0.02015771      -0.01951776      -0.05391449
10
Lattice="3.940949890606662 0.0 0.0 0.0 3.940949890606662 0.0 0.0 0.0 26.940967945119528" Properties=species:S:1:pos:R:3:forces:R:3 tau=tau44 tau_p=4 tau_q=4 stage=B constraint=xy_fixed_z_free force_label=raw_dft energy=-15499.24580120489 free_energy=-15499.24580120489 stress="0.011138170029984549 -9.181576151994517e-07 0.0006335287544876216 -9.181576151994517e-07 0.010512904694033723 0.0006344469121028211 0.0006335287544876216 0.0006344469121028211 -0.00016618652835110077" pbc="T T T"
Sr       0.00003612       0.00009431      10.05919866       0.00000000       0.00006376      -0.02913137
Sr       1.57628196       1.57636594      15.56857921      -0.04673803      -0.04642487       0.05619223
Ti       1.97047269       1.97057450      11.49893175       0.04223165       0.04192749       0.01261332
Ti       3.54658072       3.54679074      17.03036451      -0.00291049      -0.00324165      -0.03520354
O        0.00000902       1.97050521      11.64570835       0.04633025      -0.02768667      -0.01189675
O        1.57656794       3.54685853      17.17877646       0.00056281       0.00266495      -0.03975311
O        1.97049401       3.94093312      11.64471115      -0.02756763       0.04611042      -0.00729011
O        3.54695139       1.57638437      17.15026043       0.00309792       0.00076182       0.07944632
O        1.97043419       1.97038596       9.68409298       0.00519183       0.00542631       0.01266448
O        3.54692153       3.54680681      15.21469645      -0.02019833      -0.01960183      -0.03764146
10
Lattice="3.940949890606662 0.0 0.0 0.0 3.940949890606662 0.0 0.0 0.0 26.940967945119528" Properties=species:S:1:pos:R:3:forces:R:3 tau=tau44 tau_p=4 tau_q=4 stage=B constraint=xy_fixed_z_free force_label=raw_dft energy=-15499.24615672162 free_energy=-15499.24615672162 stress="0.01110236188299177 -9.181576151994517e-07 0.0006335287544876216 -9.181576151994517e-07 0.010546876525796101 0.0006344469121028211 0.0006335287544876216 0.0006344469121028211 -0.00013864179989511721" pbc="T T T"
Sr       0.00003612       0.00009431      10.05843479       0.00000926       0.00007071      -0.02361327
Sr       1.57628196       1.57636594      15.57005227      -0.04661744      -0.04633719       0.04409365
Ti       1.97047269       1.97057450      11.49926389       0.04223345       0.04192389       0.00827021
Ti       3.54658072       3.54679074      17.02944244      -0.00290560      -0.00323291      -0.02409432
O        0.00000902       1.97050521      11.64539689       0.04625697      -0.02767690      -0.00951951
O        1.57656794       3.54685853      17.17775065       0.00055047       0.00265929      -0.03992897
O        1.97049401       3.94093312      11.64451926      -0.02755708       0.04606671      -0.00549728
O        3.54695139       1.57638437      17.15233150       0.00307504       0.00077313       0.06668362
O        1.97043419       1.97038596       9.68442879       0.00519157       0.00542811       0.00663679
O        3.54692153       3.54680681      15.21369949      -0.02023664      -0.01967485      -0.02303117
10
Lattice="3.940949890606662 0.0 0.0 0.0 3.940949890606662 0.0 0.0 0.0 26.940967945119528" Properties=species:S:1:pos:R:3:forces:R:3 tau=tau44 tau_p=4 tau_q=4 stage=B constraint=xy_fixed_z_free force_label=raw_dft energy=-15499.24654489201 free_energy=-15499.24654489201 stress="0.011027072958545416 -9.181576151994517e-07 0.0006326105968724222 -9.181576151994517e-07 0.010579012042328082 0.0006335287544876216 0.0006326105968724222 0.0006335287544876216 -0.00012027864759112817" pbc="T T T"
Sr       0.00003612       0.00009431      10.05731541       0.00001671       0.00008356      -0.01513583
Sr       1.57628196       1.57636594      15.57215897      -0.04644569      -0.04620555       0.02640009
Ti       1.97047269       1.97057450      11.49968240       0.04222548       0.04191232       0.00136963
Ti       3.54658072       3.54679074      17.02824951      -0.00289481      -0.00326582      -0.00874021
O        0.00000902       1.97050521      11.64494524       0.04614462      -0.02764887      -0.00635294
O        1.57656794       3.54685853      17.17598701       0.00052888       0.00266135      -0.03764841
O        1.97049401       3.94093312      11.64425211      -0.02753292       0.04600269      -0.00316400
O        3.54695139       1.57638437      17.15543811       0.00303930       0.00079473       0.04889004
O        1.97043419       1.97038596       9.68479508       0.00518823       0.00542914      -0.00012753
O        3.54692153       3.54680681      15.21249611      -0.02026929      -0.01976356      -0.00549059
10
Lattice="3.940949890606662 0.0 0.0 0.0 3.940949890606662 0.0 0.0 0.0 26.940967945119528" Properties=species:S:1:pos:R:3:forces:R:3 tau=tau44 tau_p=4 tau_q=4 stage=B constraint=xy_fixed_z_free force_label=raw_dft energy=-15499.24686598634 free_energy=-15499.24686598634 stress="0.010907712468569487 -0.0 0.0006307742816420234 -0.0 0.010627674395933652 0.0006326105968724222 0.0006307742816420234 0.0006326105968724222 -0.0001083425985935353" pbc="T T T"
Sr       0.00003612       0.00009431      10.05572095       0.00002777       0.00009642      -0.00352498
Sr       1.57628196       1.57636594      15.57508564      -0.04619321      -0.04601735       0.00238830
Ti       1.97047269       1.97057450      11.50012155       0.04216532       0.04187890      -0.00714664
Ti       3.54658072       3.54679074      17.02681898      -0.00286909      -0.00329307       0.01097861
O        0.00000902       1.97050521      11.64429160       0.04597107      -0.02759745      -0.00270454
O        1.57656794       3.54685853      17.17301500       0.00050008       0.00266495      -0.03029685
O        1.97049401       3.94093312      11.64388442      -0.02748406       0.04589985      -0.00083021
O        3.54695139       1.57638437      17.16009802       0.00299148       0.00082378       0.02435786
O        1.97043419       1.97038596       9.68514926       0.00518154       0.00542477      -0.00887031
O        3.54692153       3.54680681      15.21113454      -0.02029089      -0.01988131       0.01564876
10
Lattice="3.940949890606662 0.0 0.0 0.0 3.940949890606662 0.0 0.0 0.0 26.940967945119528" Properties=species:S:1:pos:R:3:forces:R:3 tau=tau44 tau_p=4 tau_q=4 stage=B constraint=xy_fixed_z_free force_label=raw_dft energy=-15499.246962722811 free_energy=-15499.246962722811 stress="0.010823241967971136 -0.0 0.0006298561240268239 -0.0 0.010669909646232828 0.0006316924392572228 0.0006298561240268239 0.0006316924392572228 -0.0001065062833631364" pbc="T T T"
Sr       0.00003612       0.00009431      10.05470928       0.00003342       0.00010362       0.00275057
Sr       1.57628196       1.57636594      15.57683397      -0.04602917      -0.04590113      -0.01093284
Ti       1.97047269       1.97057450      11.50018569       0.04209770       0.04184162      -0.01122081
Ti       3.54658072       3.54679074      17.02628771      -0.00283978      -0.00330155       0.02017185
O        0.00000902       1.97050521      11.64383821       0.04584405      -0.02755323      -0.00140768
O        1.57656794       3.54685853      17.17054512       0.00047514       0.00266906      -0.02060739
O        1.97049401       3.94093312      11.64364316      -0.02743856       0.04582297      -0.00049751
O        3.54695139       1.57638437      17.16341866       0.00295985       0.00084152       0.00965629
O        1.97043419       1.97038596       9.68512770       0.00517332       0.00541680      -0.01253516
O        3.54692153       3.54680681      15.21073046      -0.02027572      -0.01993968       0.02462294
