10
Lattice="3.940949890606662 0.0 0.0 0.0 3.940949890606662 0.0 0.0 0.0 26.940967945119528" Properties=species:S:1:pos:R:3:forces:R:3 tau=tau86 tau_p=8 tau_q=6 stage=A constraint=rigid_scf force_label=raw_dft energy=-15497.436093698878 free_energy=-15497.436093698878 stress="0.007521547183713909 0.0013102109168896176 -0.00326496847964925 0.0013102109168896176 0.019002190004167852 -0.00931195453335284 -0.00326496847964925 -0.00931195453335284 -0.02338271998628444" pbc="T T T"
Sr       0.00003626       0.00009419      10.75260867       0.01054744      -0.00871964       0.47696895
Sr       3.15266178       2.36455575      14.64522241       1.19743448       0.75506024       4.47093731
Ti       1.97047258       1.97057465      12.38212169      -1.47171153      -0.55666080      -3.53714195
Ti       1.18201068       0.39403075      16.28444791      -0.02251001       0.08917280      -0.22501369
O        0.00000906       1.97050529      12.45001441      -0.16131924       0.13778285      -0.89308528
O        3.15294790       0.39409854      16.39256827      -0.01684561       0.00164114      -0.08185030
O        1.97049386       3.94093294      12.44909065       1.12321598      -1.06204970      -2.05631020
O        1.18238152       2.36457427      16.37955485      -0.14068588      -0.01404157      -0.20034910
O        1.97043435       1.97038588      10.49176941      -0.10060290      -0.14625643       0.38226828
O        1.18235157       0.39404691      14.44792112      -0.41752324       0.80407112       1.66357625
