Sr Ti O
 1.0000000000000000
     3.9409498906066620    0.0000000000000000    0.0000000000000000
     0.0000000000000000    3.9409498906066620    0.0000000000000000
     0.0000000000000000    0.0000000000000000   26.9409679451195281
 Sr  Ti  O
   2   2   6
Cartesian
  0.0000362567389936  0.0000941887023855 10.7526086686928579
  3.1526617828330536  2.3645557469443910 14.6452224147962404
  1.9704725807333965  1.9705746513355633 12.3821216936456491
  1.1820106770696124  0.3940307515774493 16.2844479107544302
  0.0000090641847484  1.9705052906174889 12.4500144078860746
  3.1529478957951116  0.3940985359155678 16.3925682650982161
  1.9704938618628061  3.9409329445221326 12.4490906492317173
  1.1823815204543187  2.3645742694088767 16.3795548544644447
  1.9704343535194577  1.9703858798358034 10.4917694123782645
  1.1823515692351498  0.3940469094720008 14.4479211230929518
