10
Lattice="3.940949890606662 0.0 0.0 0.0 3.940949890606662 0.0 0.0 0.0 26.940967945119528" Properties=species:S:1:pos:R:3:forces:R:3 tau=tau31 tau_p=3 tau_q=1 stage=B constraint=xy_fixed_z_free force_label=raw_dft energy=-15498.575424273116 free_energy=-15498.575424273116 stress="0.015064211992577403 0.0012633848785144456 0.016221090587728713 0.0012633848785144456 0.007165302029016521 0.0032548687458820564 0.016221090587728713 0.0032548687458820564 -0.016884918543517917" pbc="T T T"
Sr       0.00003626       0.00009419      10.75260867       0.00582355      -0.00334912       0.28927070
Sr       1.18218684       0.39408080      14.64522241      -0.90395282      -0.52878362       3.06214453
Ti       1.97047258       1.97057465      12.38212169       0.62032929       0.75430176      -1.57435589
Ti       3.15248562       2.36450570      16.28444791      -0.17208445      -0.01544693       0.03878663
O        0.00000906       1.97050529      12.45001441       1.94635955      -0.60703489      -2.07818540
O        1.18247295       2.36457348      16.39256827       0.01365307       0.04769653      -0.18352226
O        1.97049386       3.94093294      12.44909065      -0.04589368       0.31505835      -0.77335929
O        3.15285647       0.39409932      16.37955485      -0.04895663      -0.00422124      -0.03113375
O        1.97043435       1.97038588      10.49176941       0.28434884       0.08884756       0.25414943
O        3.15282651       2.36452185      14.44792112      -1.69962646      -0.04706841       0.99620554
10
Lattice="3.940949890606662 0.0 0.0 0.0 3.940949890606662 0.0 0.0 0.0 26.940967945119528" Properties=species:S:1:pos:R:3:forces:R:3 tau=tau31 tau_p=3 tau_q=1 stage=B constraint=xy_fixed_z_free force_label=raw_dft energy=-15498.889122276481 free_energy=-15498.889122276481 stress="0.01262650352422286 0.0010705717793225607 0.01391467865834769 0.0010705717793225607 0.005836727959822915 0.0031814161366661 0.01391467865834769 0.0031814161366661 -0.01712639399631537" pbc="T T T"
Sr       0.00003612       0.00009431      10.75856240       0.00499025      -0.00359723       0.26741170
Sr       1.18218697       0.39408097      14.70824689      -0.67425766      -0.47383503       2.18201349
Ti       1.97047269       1.97057450      12.34971901       0.56315412       0.62348506      -0.97003866
Ti       3.15248573       2.36450576      16.28524621      -0.15321718      -0.01493657       0.18795998
O        0.00000902       1.97050521      12.40724184       1.64780639      -0.53154421      -1.65188982
O        1.18247295       2.36457356      16.38879113       0.01638795       0.04456133      -0.03746046
O        1.97049401       3.94093312      12.43317357      -0.15707023       0.35315773      -0.42949121
O        3.15285639       0.39409940      16.37891402      -0.04341899      -0.00278245       0.10315934
O        1.97043419       1.97038596      10.49700022       0.26264384       0.08578537      -0.22736034
O        3.15282654       2.36452183      14.46842467      -1.46701824      -0.08029375       0.57569597
10
Lattice="3.940949890606662 0.0 0.0 0.0 3.940949890606662 0.0 0.0 0.0 26.940967945119528" Properties=species:S:1:pos:R:3:forces:R:3 tau=tau31 tau_p=3 tau_q=1 stage=B constraint=xy_fixed_z_free force_label=raw_dft energy=-15499.123977199892 free_energy=-15499.123977199892 stress="0.009709516780734201 0.0009181576151994518 0.011780880360624165 0.0009181576151994518 0.004148236105471123 0.00311439063075654 0.011780880360624165 0.00311439063075654 -0.01687665512498112" pbc="T T T"
Sr       0.00003612       0.00009431      10.76691560       0.00277371      -0.00457913       0.12370014
Sr       1.18218697       0.39408097      14.77757351      -0.48800258      -0.42133567       1.29166309
Ti       1.97047269       1.97057450      12.31854493       0.51627520       0.51282787      -0.56869022
Ti       3.15248573       2.36450576      16.29084405      -0.13400435      -0.01502090       0.20187376
O        0.00000902       1.97050521      12.35515720       1.36847403      -0.45282835      -1.16019025
O        1.18247295       2.36457356      16.38738325       0.01737423       0.04075841       0.15778114
O        1.97049401       3.94093312      12.41924420      -0.23928563       0.37760481      -0.13707091
O        3.15285639       0.39409940      16.38189918      -0.03790629      -0.00144007       0.27738449
O        1.97043419       1.97038596      10.49072943       0.23892053       0.07979496      -0.51223086
O        3.15282654       2.36452183      14.48702861      -1.24461859      -0.11578192       0.32577934
10
Lattice="3.940949890606662 0.0 0.0 0.0 3.940949890606662 0.0 0.0 0.0 26.940967945119528" Properties=species:S:1:pos:R:3:forces:R:3 tau=tau31 tau_p=3 tau_q=1 stage=B constraint=xy_fixed_z_free force_label=raw_dft energy=-15499.31161493002 free_energy=-15499.31161493002 stress="0.0049387698121578505 0.000760234505385146 0.00909251486332017 0.000760234505385146 0.0011550422799209102 0.002991357510319814 0.00909251486332017 0.002991357510319814 -0.016285361620792672" pbc="T T T"
Sr       0.00003612       0.00009431      10.77762367      -0.00166170      -0.00638688      -0.23591800
Sr       1.18218697       0.39408097      14.88156343      -0.29333999      -0.35110933       0.10218361
Ti       1.97047269       1.97057450      12.27159276       0.46026655       0.38594881      -0.25239697
Ti       3.15248573       2.36450576      16.30305427      -0.10673832      -0.01593827       0.21808534
O        0.00000902       1.97050521      12.26890361       1.01623367      -0.34295714      -0.40805721
O        1.18247295       2.36457356      16.39351719       0.01727627       0.03478523       0.45374829
O        1.97049401       3.94093312      12.40353741      -0.30682722       0.38808951       0.14116770
O        3.15285639       0.39409940      16.39624947      -0.03080259       0.00082198       0.52594049
O        1.97043419       1.97038596      10.46465408       0.20227846       0.06712713      -0.62948807
O        3.15282654       2.36452183      14.51462408      -0.95668460      -0.16038104       0.08473482
10
Lattice="3.940949890606662 0.0 0.0 0.0 3.940949890606662 0.0 0.0 0.0 26.940967945119528" Properties=species:S:1:pos:R:3:forces:R:3 tau=tau31 tau_p=3 tau_q=1 stage=B constraint=xy_fixed_z_free force_label=raw_dft energy=-15499.35927308378 free_energy=-15499.35927308378 stress="0.0033283213550980126 0.0007069813637035779 0.008048569654838394 0.0007069813637035779 0.0003498180513909911 0.002935349895792647 0.008048569654838394 0.002935349895792647 -0.015099101981954985" pbc="T T T"
Sr       0.00003612       0.00009431      10.77505808      -0.00358926      -0.00702760      -0.42366766
Sr       1.18218697       0.39408097      14.92532598      -0.23118280      -0.32201962      -0.29678552
Ti       1.97047269       1.97057450      12.24543410       0.43963576       0.34009498      -0.21001928
Ti       3.15248573       2.36450576      16.31316208      -0.09650559      -0.01665226       0.26516044
O        0.00000902       1.97050521      12.22484132       0.87829527      -0.29590569      -0.09132893
O        1.18247295       2.36457356      16.40767974       0.01665689       0.03182923       0.51739337
O        1.97049401       3.94093312      12.40040723      -0.32140589       0.38716314       0.15760657
O        3.15285639       0.39409940      16.41541331      -0.02792269       0.00199980       0.55857756
O        1.97043419       1.97038596      10.43964516       0.18400177       0.05957837      -0.50537938
O        3.15282654       2.36452183      14.52835297      -0.83798346      -0.17906062       0.02844309
10
Lattice="3.940949890606662 0.0 0.0 0.0 3.940949890606662 0.0 0.0 0.0 26.940967945119528" Properties=species:S:1:pos:R:3:forces:R:3 tau=tau31 tau_p=3 tau_q=1 stage=B constraint=xy_fixed_z_free force_label=raw_dft energy=-15499.411509144704 free_energy=-15499.411509144704 stress="0.002841697819042303 0.0006583190100980068 0.00708266784364857 0.0006583190100980068 0.0008189965927579109 0.00288026043888068 0.00708266784364857 0.00288026043888068 -0.012597122480536477" pbc="T T T"
Sr       0.00003612       0.00009431      10.75874330      -0.00510724      -0.00724280      -0.56063290
Sr       1.18218697       0.39408097      14.96344470      -0.18089716      -0.29378890      -0.51810454
Ti       1.97047269       1.97057450      12.20992140       0.42054017       0.29839555      -0.13227580
Ti       3.15248573       2.36450576      16.33190568      -0.08933889      -0.01802780       0.30690898
O        0.00000902       1.97050521      12.17605137       0.75004787      -0.24975233       0.15351671
O        1.18247295       2.36457356      16.43767051       0.01538908       0.02851636       0.47204888
O        1.97049401       3.94093312      12.40054140      -0.32863121       0.38449382       0.04541108
O        3.15285639       0.39409940      16.45173833      -0.02495873       0.00334423       0.47467167
O        1.97043419       1.97038596      10.40074011       0.16332419       0.05066410      -0.30055836
O        3.15282654       2.36452183      14.54456315      -0.72036783      -0.19660223       0.05901427
10
Lattice="3.940949890606662 0.0 0.0 0.0 3.940949890606662 0.0 0.0 0.0 26.940967945119528" Properties=species:S:1:pos:R:3:forces:R:3 tau=tau31 tau_p=3 tau_q=1 stage=B constraint=xy_fixed_z_free force_label=raw_dft energy=-15499.468797271156 free_energy=-15499.468797271156 stress="0.003890233815600077 0.0006059840260316382 0.006260916778045061 0.0006059840260316382 0.0030143114506998 0.002833434400505508 0.006260916778045061 0.002833434400505508 -0.00873902418146838" pbc="T T T"
Sr       0.00003612       0.00009431      10.72380984      -0.00588371      -0.00679594      -0.58959561
Sr       1.18218697       0.39408097      14.99060591      -0.14463149      -0.26976709      -0.50634586
Ti       1.97047269       1.97057450      12.16691520       0.40301734       0.26320075      -0.01413927
Ti       3.15248573       2.36450576      16.36169031      -0.08434504      -0.01971445       0.33828827
O        0.00000902       1.97050521      12.12680937       0.63958248      -0.20832261       0.27833066
O        1.18247295       2.36457356      16.48437848       0.01363893       0.02532562       0.30272889
O        1.97049401       3.94093312      12.40106255      -0.32862735       0.37887082      -0.17711481
O        3.15285639       0.39409940      16.50540727      -0.02214594       0.00466347       0.26684606
O        1.97043419       1.97038596      10.34962835       0.14182848       0.04164004      -0.05588730
O        3.15282654       2.36452183      14.56501269      -0.61243394      -0.20910114       0.15688897
10
Lattice="3.940949890606662 0.0 0.0 0.0 3.940949890606662 0.0 0.0 0.0 26.940967945119528" Properties=species:S:1:pos:R:3:forces:R:3 tau=tau31 tau_p=3 tau_q=1 stage=B constraint=xy_fixed_z_free force_label=raw_dft energy=-15499.516801009491 free_energy=-15499.516801009491 stress="0.006392213317018583 0.0005444674658132749 0.005710940366540589 0.0005444674658132749 0.0066750058625000145 0.0028058896720495243 0.005710940366540589 0.0028058896720495243 -0.004241888182221466" pbc="T T T"
Sr       0.00003612       0.00009431      10.67109831      -0.00542297      -0.00576056      -0.46208766
Sr       1.18218697       0.39408097      14.99996945      -0.12648696      -0.25487500      -0.26950895
Ti       1.97047269       1.97057450      12.12591482       0.39011297       0.24117488       0.08195648
Ti       3.15248573       2.36450576      16.40150310      -0.08252470      -0.02151679       0.31981284
O        0.00000902       1.97050521      12.08794945       0.56066324      -0.17812268       0.25061468
O        1.18247295       2.36457356      16.53973342       0.01186487       0.02281006       0.06840214
O        1.97049401       3.94093312      12.39610564      -0.32106162       0.36875996      -0.41458781
O        3.15285639       0.39409940      16.56640492      -0.01965660       0.00544585       0.00792183
O        1.97043419       1.97038596      10.29676073       0.12362147       0.03449315       0.15292690
O        3.15282654       2.36452183      14.58988012      -0.53110969      -0.21240886       0.26454980
10
Lattice="3.940949890606662 0.0 0.0 0.0 3.940949890606662 0.0 0.0 0.0 26.940967945119528" Properties=species:S:1:pos:R:3:forces:R:3 tau=tau31 tau_p=3 tau_q=1 stage=B constraint=xy_fixed_z_free force_label=raw_dft energy=-15499.542441480166 free_energy=-15499.542441480166 stress="0.008638945001411642 0.000493968796977305 0.005555771729571882 0.000493968796977305 0.009390916088259992 0.0028077259872799237 0.005555771729571882 0.0028077259872799237 -0.0015920853047558493" pbc="T T T"
Sr       0.00003612       0.00009431      10.62837122      -0.00406080      -0.00464598      -0.26618168
Sr       1.18218697       0.39408097      14.99408014      -0.12644583      -0.25247487      -0.02480703
Ti       1.97047269       1.97057450      12.10693033       0.38747964       0.23746786       0.08977367
Ti       3.15248573       2.36450576      16.43267636      -0.08484023      -0.02300777       0.22745110
O        0.00000902       1.97050521      12.07507502       0.53060833      -0.16672833       0.15390495
O        1.18247295       2.36457356      16.57355384       0.01070736       0.02162658      -0.05560062
O        1.97049401       3.94093312      12.38307880      -0.31093842       0.35735994      -0.49053229
O        3.15285639       0.39409940      16.60164383      -0.01793859       0.00555075      -0.11651468
O        1.97043419       1.97038596      10.26987886       0.11496456       0.03195213       0.19841023
O        3.15282654       2.36452183      14.61003156      -0.49953603      -0.20710030       0.28409636
10
Lattice="3.940949890606662 0.0 0.0 0.0 3.940949890606662 0.0 0.0 0.0 26.940967945119528" Properties=species:S:1:pos:R:3:forces:R:3 tau=tau31 tau_p=3 tau_q=1 stage=B constraint=xy_fixed_z_free force_label=raw_dft energy=-15499.560916241071 free_energy=-15499.560916241071 stress="0.010470669443734548 0.00043704302483493903 0.0055107820064271085 0.00043704302483493903 0.011196932117357313 0.0028104804601255216 0.0055107820064271085 0.0028104804601255216 -8.997944628954627e-05" pbc="T T T"
Sr       0.00003612       0.00009431      10.59039912      -0.00256776      -0.00337149      -0.04796316
Sr       1.18218697       0.39408097      14.98638550      -0.13142040      -0.25369332       0.17648309
Ti       1.97047269       1.97057450      12.09765587       0.38701402       0.23898661       0.02851353
Ti       3.15248573       2.36450576      16.46114585      -0.08694828      -0.02400562       0.09540772
O        0.00000902       1.97050521      12.07248915       0.51441218      -0.16142877       0.06576239
O        1.18247295       2.36457356      16.59611893       0.00952105       0.02087530      -0.09365320
O        1.97049401       3.94093312      12.36008490      -0.29864854       0.34217578      -0.44420487
O        3.15285639       0.39409940      16.62326694      -0.01621852       0.00536024      -0.14500739
O        1.97043419       1.97038596      10.25613862       0.10899832       0.03140885       0.14112605
O        3.15282654       2.36452183      14.63163508      -0.48414232      -0.19630810       0.22353582
10
Lattice="3.940949890606662 0.0 0.0 0.0 3.940949890606662 0.0 0.0 0.0 26.940967945119528" Properties=species:S:1:pos:R:3:forces:R:3 tau=tau31 tau_p=3 tau_q=1 stage=B constraint=xy_fixed_z_free force_label=raw_dft energy=-15499.572894284078 free_energy=-15499.572894284078 stress="0.011309865504026845 0.00038470804076857026 0.00542539334821356 0.00038470804076857026 0.011716609327560204 0.0027820175740543387 0.00542539334821356 0.0027820175740543387 0.0002681020236382399" pbc="T T T"
Sr       0.00003612       0.00009431      10.56504909      -0.00176532      -0.00247057       0.10239264
Sr       1.18218697       0.39408097      14.98765179      -0.13250874      -0.25215092       0.25024547
Ti       1.97047269       1.97057450      12.09199514       0.38243900       0.23780185      -0.04728053
Ti       3.15248573       2.36450576      16.48226483      -0.08681973      -0.02375211      -0.01101923
O        0.00000902       1.97050521      12.07191142       0.49976383      -0.15776932       0.03671432
O        1.18247295       2.36457356      16.60807483       0.00862837       0.02008829      -0.06027386
O        1.97049401       3.94093312      12.33252780      -0.28705544       0.32545692      -0.32597166
O        3.15285639       0.39409940      16.63321729      -0.01448662       0.00500568      -0.10175398
O        1.97043419       1.97038596      10.25074351       0.10399212       0.03160734       0.03351536
O        3.15282654       2.36452183      14.65188426      -0.47218721      -0.18381742       0.12343172
10
Lattice="3.940949890606662 0.0 0.0 0.0 3.940949890606662 0.0 0.0 0.0 26.940967945119528" Properties=species:S:1:pos:R:3:forces:R:3 tau=tau31 tau_p=3 tau_q=1 stage=B constraint=xy_fixed_z_free force_label=raw_dft energy=-15499.582285612933 free_energy=-15499.582285612933 stress="0.011390663374164398 0.00033696384477819875 0.005221562357639282 0.00033696384477819875 0.011408108368853188 0.0027030560191471857 0.005221562357639282 0.0027030560191471857 3.2135516531980806e-05" pbc="T T T"
Sr       0.00003612       0.00009431      10.54780167      -0.00150512      -0.00189670       0.17635762
Sr       1.18218697       0.39408097      15.00110947      -0.12713128      -0.24397378       0.21392452
Ti       1.97047269       1.97057450      12.08284201       0.37038078       0.22959386      -0.10358975
Ti       3.15248573       2.36450576      16.49982912      -0.08428513      -0.02281880      -0.07201634
O        0.00000902       1.97050521      12.06784644       0.47781664      -0.15215686       0.05577597
O        1.18247295       2.36457356      16.61718730       0.00805038       0.01899994       0.00564074
O        1.97049401       3.94093312      12.30076218      -0.27459510       0.30607852      -0.18256221
O        3.15285639       0.39409940      16.64002397      -0.01254107       0.00466244      -0.02894291
O        1.97043419       1.97038596      10.24506991       0.09768109       0.03152944      -0.07755913
O        3.15282654       2.36452183      14.67284788      -0.45387093      -0.17001754       0.01297122
10
Lattice="3.940949890606662 0.0 0.0 0.0 3.940949890606662 0.0 0.0 0.0 26.940967945119528" Properties=species:S:1:pos:R:3:forces:R:3 tau=tau31 tau_p=3 tau_q=1 stage=B constraint=xy_fixed_z_free force_label=raw_dft energy=-15499.589003151212 free_energy=-15499.589003151212 stress="0.010915057729491081 0.0003020738554006196 0.004929588236005857 0.0003020738554006196 0.01064879202108324 0.0025818592139408582 0.004929588236005857 0.0025818592139408582 -0.0003911351440749664" pbc="T T T"
Sr       0.00003612       0.00009431      10.53815356      -0.00180569      -0.00169564       0.16396311
Sr       1.18218697       0.39408097      15.02369729      -0.11702042      -0.22994404       0.10459453
Ti       1.97047269       1.97057450      12.06819775       0.35185084       0.21564434      -0.11778661
Ti       3.15248573       2.36450576      16.51347155      -0.08006004      -0.02152553      -0.07303090
O        0.00000902       1.97050521      12.05972560       0.45140781      -0.14485390       0.09405224
O        1.18247295       2.36457356      16.62712276       0.00782592       0.01762003       0.06366926
O        1.97049401       3.94093312      12.27083070      -0.26194245       0.28702304      -0.07032533
O        3.15285639       0.39409940      16.64796532      -0.01070530       0.00439119       0.03208377
O        1.97043419       1.97038596      10.23471112       0.09040050       0.03067480      -0.13443836
O        3.15282654       2.36452183      14.69144432      -0.42995118      -0.15733429      -0.06278171
10
Lattice="3.940949890606662 0.0 0.0 0.0 3.940949890606662 0.0 0.0 0.0 26.940967945119528" Properties=species:S:1:pos:R:3:forces:R:3 tau=tau31 tau_p=3 tau_q=1 stage=B constraint=xy_fixed_z_free force_label=raw_dft energy=-15499.593163363636 free_energy=-15499.593163363636 stress="0.010422925247744175 0.00027820175740543384 0.004643123060063627 0.00027820175740543384 0.010011590636134821 0.002455153463043334 0.004643123060063627 0.002455153463043334 -0.0004985595850533022" pbc="T T T"
Sr       0.00003612       0.00009431      10.53234963      -0.00232325      -0.00175478       0.10435722
Sr       1.18218697       0.39408097      15.04664672      -0.10681700      -0.21483238      -0.00168253
Ti       1.97047269       1.97057450      12.05010946       0.33227883       0.20077950      -0.09533702
Ti       3.15248573       2.36450576      16.52444609      -0.07564983      -0.02015205      -0.04082835
O        0.00000902       1.97050521      12.05068839       0.42766702      -0.13780599       0.11302390
O        1.18247295       2.36457356      16.63993143       0.00777193       0.01621466       0.08252238
O        1.97049401       3.94093312      12.24709621      -0.25057329       0.27131540      -0.01742951
O        3.15285639       0.39409940      16.65921033      -0.00927603       0.00418396       0.05221088
O        1.97043419       1.97038596      10.21931293       0.08329911       0.02924861      -0.11874254
O        3.15282654       2.36452183      14.70552877      -0.40637725      -0.14719720      -0.07809443
10
Lattice="3.940949890606662 0.0 0.0 0.0 3.940949890606662 0.0 0.0 0.0 26.940967945119528" Properties=species:S:1:pos:R:3:forces:R:3 tau=tau31 tau_p=3 tau_q=1 stage=B constraint=xy_fixed_z_free force_label=raw_dft energy=-15499.595454562155 free_energy=-15499.595454562155 stress="0.010257656877008274 0.00026351123556224264 0.00443837391187415 0.00026351123556224264 0.009742570454881382 0.002353237967756195 0.00443837391187415 0.002353237967756195 -0.00022678493095426458" pbc="T T T"
Sr       0.00003612       0.00009431      10.52772572      -0.00275802      -0.00186868       0.04741603
Sr       1.18218697       0.39408097      15.06252700      -0.09992541      -0.20313335      -0.05470331
Ti       1.97047269       1.97057450      12.03334307       0.31676557       0.18967542      -0.05561065
Ti       3.15248573       2.36450576      16.53339252      -0.07290646      -0.01922954      -0.00771614
O        0.00000902       1.97050521      12.04508876       0.41236921      -0.13305073       0.09569595
O        1.18247295       2.36457356      16.65364778       0.00784264       0.01508132       0.06367208
O        1.97049401       3.94093312      12.23006475      -0.24164230       0.26015579      -0.00866796
O        3.15285639       0.39409940      16.67140280      -0.00828692       0.00402558       0.03638882
O        1.97043419       1.97038596      10.20330832       0.07769565       0.02793529      -0.06435574
O        3.15282654       2.36452183      14.71481923      -0.38915395      -0.13959059      -0.05211909
10
Lattice="3.940949890606662 0.0 0.0 0.0 3.940949890606662 0.0 0.0 0.0 26.940967945119528" Properties=species:S:1:pos:R:3:forces:R:3 tau=tau31 tau_p=3 tau_q=1 stage=B constraint=xy_fixed_z_free force_label=raw_dft energy=-15499.59649798267 free_energy=-15499.59649798267 stress="0.010387117100751396 0.00025708413225584645 0.004352067096045401 0.00025708413225584645 0.009734307036344588 0.0022963121956138285 0.004352067096045401 0.0022963121956138285 0.00013588732704951885" pbc="T T T"
Sr       0.00003612       0.00009431      10.52511743      -0.00300793      -0.00193167       0.01759329
Sr       1.18218697       0.39408097      15.06831626      -0.09742707      -0.19714062      -0.05351031
Ti       1.97047269       1.97057450      12.02309476       0.30811843       0.18439875      -0.01942057
Ti       3.15248573       2.36450576      16.53882127      -0.07212227      -0.01875620       0.00805629
O        0.00000902       1.97050521      12.04533544       0.40806981      -0.13171042       0.05508151
O        1.18247295       2.36457356      16.66337393       0.00796579       0.01444420       0.03191639
O        1.97049401       3.94093312      12.21994962      -0.23631935       0.25416769      -0.01390993
O        3.15285639       0.39409940      16.67946077      -0.00774133       0.00392582       0.01033069
O        1.97043419       1.97038596      10.19284132       0.07459516       0.02729637      -0.01621775
O        3.15282654       2.36452183      14.71900918      -0.38213149      -0.13469418      -0.01991962
10
Lattice="3.940949890606662 0.0 0.0 0.0 3.940949890606662 0.0 0.0 0.0 26.940967945119528" Properties=species:S:1:pos:R:3:forces:R:3 tau=tau31 tau_p=3 tau_q=1 stage=B constraint=xy_fixed_z_free force_label=raw_dft energy=-15499.596913908672 free_energy=-15499.596913908672 stress="0.010581766515173681 0.00025616597464064704 0.004365839460273392 0.00025616597464064704 0.009770115183337365 0.0022816216737706375 0.004365839460273392 0.0022816216737706375 0.0003176825348590103" pbc="T T T"
Sr       0.00003612       0.00009431      10.52595129      -0.00311798      -0.00200495       0.00884717
Sr       1.18218697       0.39408097      15.06638765      -0.09822797      -0.19632789      -0.02975203
Ti       1.97047269       1.97057450      12.02090536       0.30630143       0.18432701      -0.00086723
Ti       3.15248573       2.36450576      16.53960767      -0.07265886      -0.01861993       0.00838848
O        0.00000902       1.97050521      12.04987232       0.41239775      -0.13317826       0.01798255
O        1.18247295       2.36457356      16.66628509       0.00806941       0.01428916       0.01016460
O        1.97049401       3.94093312      12.21651757      -0.23479648       0.25287262      -0.01421897
O        3.15285639       0.39409940      16.68083821      -0.00760841       0.00386025      -0.00491544
O        1.97043419       1.97038596      10.19036412       0.07397167       0.02737145       0.00618607
O        3.15282654       2.36452183      14.71859068      -0.38433030      -0.13258948      -0.00181520
10
Lattice="3.940949890606662 0.0 0.0 0.0 3.940949890606662 0.0 0.0 0.0 26.940967945119528" Properties=species:S:1:pos:R:3:forces:R:3 tau=tau31 tau_p=3 tau_q=1 stage=B constraint=xy_fixed_z_free force_label=raw_dft energy=-15499.597072823153 free_energy=-15499.597072823153 stress="0.01070020884753441 0.00025892044748624537 0.004423683390030958 0.00025892044748624537 0.009751752031033376 0.002290803249922632 0.004423683390030958 0.002290803249922632 0.0003057464858614174" pbc="T T T"
Sr       0.00003612       0.00009431      10.52913613      -0.00315114      -0.00208208       0.00675352
Sr       1.18218697       0.39408097      15.06165781      -0.10024757      -0.19808164      -0.00780535
Ti       1.97047269       1.97057450      12.02338128       0.30807267       0.18664615       0.00308815
Ti       3.15248573       2.36450576      16.53742932      -0.07364668      -0.01860013       0.00379083
O        0.00000902       1.97050521      12.05530568       0.41994574      -0.13571465      -0.00397107
O        1.18247295       2.36457356      16.66461814       0.00816634       0.01440255       0.00179437
O        1.97049401       3.94093312      12.21716093      -0.23551845       0.25411472      -0.00870216
O        3.15285639       0.39409940      16.67797988      -0.00770071       0.00381989      -0.00779893
O        1.97043419       1.97038596      10.19281991       0.07473528       0.02780057       0.00932873
O        3.15282654       2.36452183      14.71583088      -0.39065547      -0.13230563       0.00352190
