10
Lattice="3.940949890606662 0.0 0.0 0.0 3.940949890606662 0.0 0.0 0.0 26.940967945119528" Properties=species:S:1:pos:R:3:forces:R:3 energy=-15498.578201739068 free_energy=-15498.578201739068 stress="0.007496756928103524 0.001264303036129645 0.003252114273036458 0.001264303036129645 0.014759383664331186 0.016206400065885522 0.003252114273036458 0.016206400065885522 -0.01686104644552273" pbc="T T T"
Sr       0.00003626       0.00009419      10.75260867      -0.00342522       0.00579912       0.28890483
Sr       0.39399686       1.18227078      14.64522241      -0.53034685      -0.90673758       3.06580501
Ti       1.97047258       1.97057465      12.38212169       0.75412255       0.62025524      -1.57182978
Ti       2.36429564       3.15269568      16.28444791      -0.01653939      -0.16978408       0.03799936
O        0.00000906       1.97050529      12.45001441       0.31598009      -0.04396484      -0.78166216
O        0.39428297       3.15276346      16.39256827      -0.00264772      -0.04875454      -0.06882920
O        1.97049386       3.94093294      12.44909065      -0.60626741       1.93998527      -2.07039548
O        2.36466649       1.18228930      16.37955485       0.04958167       0.01101178      -0.14794308
O        1.97043435       1.97038588      10.49176941       0.08904862       0.28432544       0.25448856
O        2.36463654       3.15271183      14.44792112      -0.04950685      -1.69213555       0.99346192
10
Lattice="3.940949890606662 0.0 0.0 0.0 3.940949890606662 0.0 0.0 0.0 26.940967945119528" Properties=species:S:1:pos:R:3:forces:R:3 energy=-15498.891431706632 free_energy=-15498.891431706632 stress="0.006121356820534744 0.0010714899369377601 0.0031814161366661 0.0010714899369377601 0.012355647027739022 0.013901824451734898 0.0031814161366661 0.013901824451734898 -0.017102521898320185" pbc="T T T"
Sr       0.00003612       0.00009431      10.75855487      -0.00374018       0.00497354       0.26659692
Sr       0.39399699       1.18227095      14.70832223      -0.47532884      -0.67590831       2.18211968
Ti       1.97047269       1.97057450      12.34977100       0.62374268       0.56291964      -0.97018161
Ti       2.36429575       3.15269575      16.28523001      -0.01566033      -0.15169791       0.18797875
O        0.00000902       1.97050521      12.43392651       0.35400594      -0.15601531      -0.43356693
O        0.39428297       3.15276354      16.39115171      -0.00174706      -0.04324518       0.06191422
O        1.97049401       3.94093312      12.40647834      -0.53108553       1.64311901      -1.64536410
O        2.36466641       1.18228938      16.37650988       0.04613665       0.01430742       0.00237287
O        1.97043419       1.97038596      10.49700720       0.08597358       0.26266416      -0.22664506
O        2.36463656       3.15271182      14.46836820      -0.08229690      -1.46111730       0.57477551
10
Lattice="3.940949890606662 0.0 0.0 0.0 3.940949890606662 0.0 0.0 0.0 26.940967945119528" Properties=species:S:1:pos:R:3:forces:R:3 energy=-15499.12567151671 free_energy=-15499.12567151671 stress="0.004375021036425388 0.0009190757728146512 0.0031153087883717396 0.0009190757728146512 0.009488240795471134 0.011768944311626573 0.0031153087883717396 0.011768944311626573 -0.016853701184601135" pbc="T T T"
Sr       0.00003612       0.00009431      10.76689325      -0.00463004       0.00281304       0.12373125
Sr       0.39399699       1.18227095      14.77773172      -0.42239523      -0.48886621       1.28930102
Ti       1.97047269       1.97057450      12.31856605       0.51291374       0.51580392      -0.56730260
Ti       2.36429575       3.15269575      16.29083547      -0.01540476      -0.13306976       0.20029099
O        0.00000902       1.97050521      12.41985027       0.37845893      -0.23870996      -0.14075221
O        0.39428297       3.15276354      16.39286348      -0.00085669      -0.03773274       0.23544080
O        1.97049401       3.94093312      12.35454104      -0.45251698       1.36503184      -1.15582323
O        2.36466641       1.18228938      16.37633526       0.04197017       0.01597889       0.19994004
O        1.97043419       1.97038596      10.49074521       0.07985486       0.23888428      -0.51212904
O        2.36463656       3.15271182      14.48695821      -0.11739400      -1.24013330       0.32730298
10
Lattice="3.940949890606662 0.0 0.0 0.0 3.940949890606662 0.0 0.0 0.0 26.940967945119528" Properties=species:S:1:pos:R:3:forces:R:3 energy=-15499.312211539613 free_energy=-15499.312211539613 stress="0.001292765922200828 0.000760234505385146 0.002992275667935013 0.000760234505385146 0.0048065551155691295 0.009083333287168175 0.002992275667935013 0.009083333287168175 -0.016266080310873485" pbc="T T T"
Sr       0.00003612       0.00009431      10.77761580      -0.00643161      -0.00160540      -0.23720612
Sr       0.39399699       1.18227095      14.88184596      -0.35168398      -0.29369506       0.09827862
Ti       1.97047269       1.97057450      12.27159657       0.38624937       0.45975593      -0.25286877
Ti       2.36429575       3.15269575      16.30299707      -0.01580457      -0.10652055       0.22068036
O        0.00000902       1.97050521      12.40384607       0.38854845      -0.30665496       0.14052133
O        0.39428297       3.15276354      16.40453579       0.00084538      -0.03059587       0.48885490
O        1.97049401       3.94093312      12.26843294      -0.34270800       1.01403897      -0.40405760
O        2.36466641       1.18228938      16.38517239       0.03543057       0.01677208       0.49201479
O        1.97043419       1.97038596      10.46462307       0.06706491       0.20222472      -0.62957343
O        2.36463656       3.15271182      14.51465431      -0.16151053      -0.95372038       0.08335594
10
Lattice="3.940949890606662 0.0 0.0 0.0 3.940949890606662 0.0 0.0 0.0 26.940967945119528" Properties=species:S:1:pos:R:3:forces:R:3 energy=-15499.359306961955 free_energy=-15499.359306961955 stress="0.0004636695956757231 0.0007078995213187773 0.002936268053407847 0.0007078995213187773 0.0032576232187276543 0.008051324127683992 0.002936268053407847 0.008051324127683992 -0.015077984356805395" pbc="T T T"
Sr       0.00003612       0.00009431      10.77500175      -0.00704945      -0.00351778      -0.42332854
Sr       0.39399699       1.18227095      14.92516352      -0.32251532      -0.23200761      -0.29615432
Ti       1.97047269       1.97057450      12.24562053       0.34082415       0.43946761      -0.21177148
Ti       2.36429575       3.15269575      16.31310603      -0.01633448      -0.09674187       0.26525146
O        0.00000902       1.97050521      12.40063612       0.38744879      -0.32117321       0.15656321
O        0.39428297       3.15276354      16.42163798       0.00180594      -0.02773192       0.52854888
O        1.97049401       3.94093312      12.22489365      -0.29614069       0.87800165      -0.09170482
O        2.36466641       1.18228938      16.40127351       0.03223752       0.01652757       0.54746757
O        1.97043419       1.97038596      10.43973533       0.05951795       0.18413161      -0.50473712
O        2.36463656       3.15271182      14.52825154      -0.17979416      -0.83695656       0.02986516
10
Lattice="3.940949890606662 0.0 0.0 0.0 3.940949890606662 0.0 0.0 0.0 26.940967945119528" Properties=species:S:1:pos:R:3:forces:R:3 energy=-15499.411998949616 free_energy=-15499.411998949616 stress="0.0008851039410522714 0.0006583190100980068 0.00288026043888068 0.0006583190100980068 0.0028003807263583275 0.0070753225827269745 0.00288026043888068 0.0070753225827269745 -0.012556723545467703" pbc="T T T"
Sr       0.00003612       0.00009431      10.75847927      -0.00725180      -0.00505582      -0.56176676
Sr       0.39399699       1.18227095      14.96375857      -0.29367140      -0.18080563      -0.51954950
Ti       1.97047269       1.97057450      12.20959941       0.29857424       0.42012083      -0.13150601
Ti       2.36429575       3.15269575      16.33212192      -0.01761334      -0.08975927       0.30672284
O        0.00000902       1.97050521      12.40059714       0.38447428      -0.32858544       0.04365605
O        0.39428297       3.15276354      16.45546829       0.00303262      -0.02481295       0.45742291
O        1.97049401       3.94093312      12.17564028      -0.24944226       0.74871784       0.15484649
O        2.36466641       1.18228938      16.43461781       0.02865135       0.01562074       0.48783700
O        1.97043419       1.97038596      10.40033473       0.05044273       0.16320874      -0.29853310
O        2.36463656       3.15271182      14.54470254      -0.19719641      -0.71864930       0.06087035
10
Lattice="3.940949890606662 0.0 0.0 0.0 3.940949890606662 0.0 0.0 0.0 26.940967945119528" Properties=species:S:1:pos:R:3:forces:R:3 energy=-15499.471308473716 free_energy=-15499.471308473716 stress="0.003144689832058122 0.0006023113955708403 0.0028279254548143114 0.0006023113955708403 0.003959095636740036 0.006208581793978693 0.0028279254548143114 0.006208581793978693 -0.008487448994903732" pbc="T T T"
Sr       0.00003612       0.00009431      10.72148322      -0.00681625      -0.00587111      -0.59215797
Sr       0.39399699       1.18227095      14.99259636      -0.26801051      -0.14230490      -0.50715781
Ti       1.97047269       1.97057450      12.16398158       0.26126599       0.40152790      -0.00676612
Ti       2.36429575       3.15269575      16.36372014      -0.01929896      -0.08453556       0.34003559
O        0.00000902       1.97050521      12.40091609       0.37816222      -0.32860524      -0.19109210
O        0.39428297       3.15276354      16.50844003       0.00433874      -0.02200376       0.25659867
O        1.97049401       3.94093312      12.12358795      -0.20577644       0.63271378       0.28568324
O        2.36466641       1.18228938      16.48798963       0.02511788       0.01408527       0.29003972
O        1.97043419       1.97038596      10.34615602       0.04087000       0.14057841      -0.03951708
O        2.36463656       3.15271182      14.56644895      -0.20985267      -0.60558478       0.16433386
10
Lattice="3.940949890606662 0.0 0.0 0.0 3.940949890606662 0.0 0.0 0.0 26.940967945119528" Properties=species:S:1:pos:R:3:forces:R:3 energy=-15499.517293263423 free_energy=-15499.517293263423 stress="0.006633688769816038 0.0005435493081980754 0.0028012988839735274 0.0005435493081980754 0.006473929344771334 0.005698086159927797 0.0028012988839735274 0.005698086159927797 -0.004184044252463901" pbc="T T T"
Sr       0.00003612       0.00009431      10.67049472      -0.00579372      -0.00535586      -0.46335418
Sr       0.39399699       1.18227095      15.00066786      -0.25416769      -0.12565393      -0.27066774
Ti       1.97047269       1.97057450      12.12506019       0.24087637       0.38966894       0.08419900
Ti       2.36429575       3.15269575      16.40213299      -0.02114604      -0.08296924       0.31934181
O        0.00000902       1.97050521      12.39568030       0.36811024      -0.32112744      -0.41615439
O        0.39428297       3.15276354      16.56339758       0.00506584      -0.01982115       0.02359861
O        1.97049401       3.94093312      12.08723092      -0.17747502       0.55911569       0.25179276
O        2.36466641       1.18228938      16.54437082       0.02268381       0.01256704       0.04986192
O        1.97043419       1.97038596      10.29584843       0.03412934       0.12340472       0.15591812
O        2.36463656       3.15271182      14.59043614      -0.21228313      -0.52982851       0.26546409
10
Lattice="3.940949890606662 0.0 0.0 0.0 3.940949890606662 0.0 0.0 0.0 26.940967945119528" Properties=species:S:1:pos:R:3:forces:R:3 energy=-15499.543653203089 free_energy=-15499.543653203089 stress="0.0093780618816472 0.0004902961665165072 0.002803135199203926 0.0004902961665165072 0.008820740209221132 0.005545671995804688 0.002803135199203926 0.005545671995804688 -0.0014929242823143085" pbc="T T T"
Sr       0.00003612       0.00009431      10.62640764      -0.00464727      -0.00392222      -0.25855168
Sr       0.39399699       1.18227095      14.99421763      -0.25189535      -0.12584573      -0.01511629
Ti       1.97047269       1.97057450      12.10579901       0.23727477       0.38710683       0.09078257
Ti       2.36429575       3.15269575      16.43424899      -0.02276558      -0.08536037       0.22306120
O        0.00000902       1.97050521      12.38201279       0.35624485      -0.31062937      -0.49211069
O        0.39428297       3.15276354      16.59790312       0.00521085      -0.01817976      -0.09794592
O        1.97049401       3.94093312      12.07443806      -0.16599736       0.52903121       0.14974208
O        2.36466641       1.18228938      16.58056731       0.02151088       0.01140644      -0.08250284
O        1.97043419       1.97038596      10.26849662       0.03156312       0.11462441       0.19932529
O        2.36463656       3.15271182      14.61122877      -0.20649918      -0.49823120       0.28331629
10
Lattice="3.940949890606662 0.0 0.0 0.0 3.940949890606662 0.0 0.0 0.0 26.940967945119528" Properties=species:S:1:pos:R:3:forces:R:3 energy=-15499.561542238956 free_energy=-15499.561542238956 stress="0.011098689252530972 0.00043520670960454016 0.0028058896720495243 0.00043520670960454016 0.010607474928399266 0.005504354903120713 0.0028058896720495243 0.005504354903120713 -6.151656021836326e-05" pbc="T T T"
Sr       0.00003612       0.00009431      10.58951495      -0.00340723      -0.00248369      -0.04465903
Sr       0.39399699       1.18227095      14.98676314      -0.25312125      -0.13074779       0.17873641
Ti       1.97047269       1.97057450      12.09702123       0.23881949       0.38675099       0.02865674
Ti       2.36429575       3.15269575      16.46192911      -0.02382693      -0.08730309       0.09322460
O        0.00000902       1.97050521      12.35922603       0.34132063      -0.29860278      -0.44287869
O        0.39428297       3.15276354      16.61825963       0.00505685      -0.01655173      -0.12255317
O        1.97049401       3.94093312      12.07216991      -0.16095929       0.51355832       0.06452209
O        2.36466641       1.18228938      16.60257024       0.02083108       0.01023608      -0.11691269
O        1.97043419       1.97038596      10.25549635       0.03109595       0.10887902       0.14008681
O        2.36463656       3.15271182      14.63236937      -0.19580956      -0.48373506       0.22177693
10
Lattice="3.940949890606662 0.0 0.0 0.0 3.940949890606662 0.0 0.0 0.0 26.940967945119528" Properties=species:S:1:pos:R:3:forces:R:3 energy=-15499.573505859928 free_energy=-15499.573505859928 stress="0.011608266728966667 0.00038287172553817133 0.0027755904707479425 0.00038287172553817133 0.011430144151617973 0.005417129929676765 0.0027755904707479425 0.005417129929676765 0.00027728359979023443" pbc="T T T"
Sr       0.00003612       0.00009431      10.56426983      -0.00251814      -0.00167996       0.10458014
Sr       0.39399699       1.18227095      14.98831750      -0.25148808      -0.13179578       0.24968343
Ti       1.97047269       1.97057450      12.09137621       0.23750591       0.38204150      -0.04796444
Ti       2.36429575       3.15269575      16.48301440      -0.02356750      -0.08705807      -0.01214306
O        0.00000902       1.97050521      12.33136963       0.32447553      -0.28693228      -0.32226104
O        0.39428297       3.15276354      16.62846268       0.00470563      -0.01478821      -0.07990526
O        1.97049401       3.94093312      12.07155204      -0.15726178       0.49871894       0.03721595
O        2.36466641       1.18228938      16.61398735       0.02008649       0.00931511      -0.07978647
O        1.97043419       1.97038596      10.25023200       0.03131527       0.10385508       0.03053519
O        2.36463656       3.15271182      14.65273833      -0.18325332      -0.47167685       0.12004558
10
Lattice="3.940949890606662 0.0 0.0 0.0 3.940949890606662 0.0 0.0 0.0 26.940967945119528" Properties=species:S:1:pos:R:3:forces:R:3 energy=-15499.582764397233 free_energy=-15499.582764397233 stress="0.011294256824568456 0.0003351275295477999 0.00269571075822559 0.0003351275295477999 0.011467788613841151 0.005208708151026489 0.00269571075822559 0.005208708151026489 3.029920130158191e-05" pbc="T T T"
Sr       0.00003612       0.00009431      10.54713034      -0.00195378      -0.00143648       0.17623755
Sr       0.39399699       1.18227095      15.00216821      -0.24312840      -0.12628693       0.21044017
Ti       1.97047269       1.97057450      12.08202101       0.22907604       0.36971744      -0.10364374
Ti       2.36429575       3.15269575      16.50055640      -0.02262082      -0.08446280      -0.07199140
O        0.00000902       1.97050521      12.29959034       0.30507450      -0.27440896      -0.17943858
O        0.39428297       3.15276354      16.63608877       0.00435493      -0.01281001      -0.00979410
O        1.97049401       3.94093312      12.06720906      -0.15153516       0.47638479       0.05761277
O        2.36466641       1.18228938      16.62245667       0.01902771       0.00869881      -0.01087371
O        1.97043419       1.97038596      10.24437897       0.03122142       0.09748363      -0.07914498
O        2.36463656       3.15271182      14.67372018      -0.16951643      -0.45287951       0.01059577
10
Lattice="3.940949890606662 0.0 0.0 0.0 3.940949890606662 0.0 0.0 0.0 26.940967945119528" Properties=species:S:1:pos:R:3:forces:R:3 energy=-15499.589342205054 free_energy=-15499.589342205054 stress="0.010562485205254492 0.0003002375401702207 0.0025745139530192625 0.0003002375401702207 0.010976574289709445 0.0049148977141626644 0.0025745139530192625 0.0049148977141626644 -0.00037369014938617686" pbc="T T T"
Sr       0.00003612       0.00009431      10.53758803      -0.00175658      -0.00175632       0.16166582
Sr       0.39399699       1.18227095      15.02492236      -0.22904313      -0.11618070       0.10038872
Ti       1.97047269       1.97057450      12.06720134       0.21506070       0.35107000      -0.11688106
Ti       2.36429575       3.15269575      16.51413022      -0.02128462      -0.08021328      -0.07163119
O        0.00000902       1.97050521      12.26990337       0.28615067      -0.26175501      -0.06952494
O        0.39428297       3.15276354      16.64492670       0.00407366      -0.01094519       0.04734944
O        1.97049401       3.94093312      12.05886705      -0.14418644       0.44984021       0.09625850
O        2.36466641       1.18228938      16.63179393       0.01766682       0.00844864       0.04849640
O        1.97043419       1.97038596      10.23379035       0.03033773       0.09020176      -0.13346339
O        2.36463656       3.15271182      14.69219662      -0.15701907      -0.42871037      -0.06265830
10
Lattice="3.940949890606662 0.0 0.0 0.0 3.940949890606662 0.0 0.0 0.0 26.940967945119528" Properties=species:S:1:pos:R:3:forces:R:3 energy=-15499.593374387916 free_energy=-15499.593374387916 stress="0.00994823776068606 0.00027728359979023443 0.0024478082021217383 0.00027728359979023443 0.010478014704656143 0.004629350695835636 0.0024478082021217383 0.004629350695835636 -0.0004691785413669198" pbc="T T T"
Sr       0.00003612       0.00009431      10.53173867      -0.00181520      -0.00226823       0.10199978
Sr       0.39399699       1.18227095      15.04778996      -0.21399394      -0.10609297      -0.00479999
Ti       1.97047269       1.97057450      12.04902785       0.20025963       0.33149002      -0.09377585
Ti       2.36429575       3.15269575      16.52512261      -0.01989108      -0.07583417      -0.03899284
O        0.00000902       1.97050521      12.24635718       0.27056747      -0.25038791      -0.01869372
O        0.39428297       3.15276354      16.65690153       0.00385871      -0.00949971       0.06415854
O        1.97049401       3.94093312      12.04978159      -0.13715678       0.42617115       0.11431922
O        2.36466641       1.18228938      16.64415703       0.01627585       0.00836586       0.06808744
O        1.97043419       1.97038596      10.21823585       0.02890023       0.08312068      -0.11593464
O        2.36463656       3.15271182      14.70620770      -0.14700462      -0.40506470      -0.07636793
10
Lattice="3.940949890606662 0.0 0.0 0.0 3.940949890606662 0.0 0.0 0.0 26.940967945119528" Properties=species:S:1:pos:R:3:forces:R:3 energy=-15499.595550890454 free_energy=-15499.595550890454 stress="0.009704925992658204 0.00026351123556224264 0.0023486471796801975 0.00026351123556224264 0.01031641896438104 0.004431028650952554 0.0023486471796801975 0.004431028650952554 -0.00019464941442228376" pbc="T T T"
Sr       0.00003612       0.00009431      10.52721132      -0.00192293      -0.00269452       0.04664110
Sr       0.39399699       1.18227095      15.06313710      -0.20265255      -0.09949115      -0.05510311
Ti       1.97047269       1.97057450      12.03261910       0.18951113       0.31631717      -0.05413946
Ti       2.36429575       3.15269575      16.53389158      -0.01897860      -0.07319468      -0.00714895
O        0.00000902       1.97050521      12.22972462       0.25969813      -0.24161968      -0.01072150
O        0.39428297       3.15276354      16.66939332       0.00371447      -0.00851935       0.04599986
O        1.97049401       3.94093312      12.04446475      -0.13259462       0.41143898       0.09598391
O        2.36466641       1.18228938      16.65709560       0.01519291       0.00839105       0.05096158
O        1.97043419       1.97038596      10.20254162       0.02762239       0.07766634      -0.06220604
O        2.36463656       3.15271182      14.71524093      -0.13959033      -0.38829417      -0.05026790
10
Lattice="3.940949890606662 0.0 0.0 0.0 3.940949890606662 0.0 0.0 0.0 26.940967945119528" Properties=species:S:1:pos:R:3:forces:R:3 energy=-15499.596552269382 free_energy=-15499.596552269382 stress="0.009706762307888602 0.00025616597464064704 0.0022935577227682306 0.00025616597464064704 0.010437615769587367 0.004350230780815002 0.0022935577227682306 0.004350230780815002 0.00015700495219910624" pbc="T T T"
Sr       0.00003612       0.00009431      10.52483606      -0.00199466      -0.00294134       0.01775244
Sr       0.39399699       1.18227095      15.06851038      -0.19694393      -0.09720775      -0.05289068
Ti       1.97047269       1.97057450      12.02276550       0.18453064       0.30796031      -0.01832168
Ti       2.36429575       3.15269575      16.53906626      -0.01853405      -0.07244932       0.00789406
O        0.00000902       1.97050521      12.21988553       0.25394015      -0.23643479      -0.01550041
O        0.39428297       3.15276354      16.67770190       0.00364788      -0.00799279       0.01787662
O        1.97049401       3.94093312      12.04504515      -0.13144379       0.40766332       0.05493188
O        2.36466641       1.18228938      16.66585784       0.01460618       0.00844427       0.02207755
O        1.97043419       1.97038596      10.19246515       0.02702487       0.07468900      -0.01486843
O        2.36463656       3.15271182      14.71918617      -0.13483328      -0.38173092      -0.01895083
10
Lattice="3.940949890606662 0.0 0.0 0.0 3.940949890606662 0.0 0.0 0.0 26.940967945119528" Properties=species:S:1:pos:R:3:forces:R:3 energy=-15499.596960712252 free_energy=-15499.596960712252 stress="0.00974440677011178 0.00025616597464064704 0.002280703516155438 0.00025616597464064704 0.010613902031705662 0.00436951209073419 0.002280703516155438 0.00436951209073419 0.0003204370077046086" pbc="T T T"
Sr       0.00003612       0.00009431      10.52604772      -0.00207154      -0.00305010       0.00887673
Sr       0.39399699       1.18227095      15.06621175      -0.19640091      -0.09817038      -0.02891154
Ti       1.97047269       1.97057450      12.02103004       0.18472245       0.30642999      -0.00060601
Ti       2.36429575       3.15269575      16.53947684      -0.01843301      -0.07302370       0.00844093
O        0.00000902       1.97050521      12.21681278       0.25290965      -0.23509679      -0.01529446
O        0.39428297       3.15276354      16.67924362       0.00361831      -0.00788609       0.00081530
O        1.97049401       3.94093312      12.04991496      -0.13310832       0.41255227       0.01784294
O        2.36466641       1.18228938      16.66769361       0.01450488       0.00848773       0.00364145
O        1.97043419       1.97038596      10.19045262       0.02714648       0.07419561       0.00672061
O        2.36463656       3.15271182      14.71843603      -0.13288772      -0.38443803      -0.00152595
10
Lattice="3.940949890606662 0.0 0.0 0.0 3.940949890606662 0.0 0.0 0.0 26.940967945119528" Properties=species:S:1:pos:R:3:forces:R:3 energy=-15499.597112143605 free_energy=-15499.597112143605 stress="0.009730634405883789 0.00025983860510144484 0.0022898850923074323 0.00025983860510144484 0.0107176538422232 0.004428274178106956 0.0022898850923074323 0.004428274178106956 0.00030115569778542016" pbc="T T T"
Sr       0.00003612       0.00009431      10.52928307      -0.00215047      -0.00308481       0.00683553
Sr       0.39399699       1.18227095      15.06149194      -0.19818346      -0.10022160      -0.00737290
Ti       1.97047269       1.97057450      12.02356753       0.18707655       0.30821253       0.00290149
Ti       2.36429575       3.15269575      16.53726627      -0.01842684      -0.07398221       0.00355712
O        0.00000902       1.97050521      12.21740689       0.25414841      -0.23579304      -0.00903948
O        0.39428297       3.15276354      16.67682859       0.00359826      -0.00797942      -0.00371370
O        1.97049401       3.94093312      12.05539196      -0.13567634       0.42012083      -0.00385023
O        2.36466641       1.18228938      16.66541481       0.01464269       0.00853401      -0.00205071
O        1.97043419       1.97038596      10.19299690       0.02758742       0.07496925       0.00925289
O        2.36463656       3.15271182      14.71567201      -0.13261596      -0.39077528       0.00347999
