10
Lattice="3.940949890606662 0.0 0.0 0.0 3.940949890606662 0.0 0.0 0.0 26.940967945119528" Properties=species:S:1:pos:R:3:forces:R:3 tau=tau49 tau_p=4 tau_q=9 stage=B constraint=xy_fixed_z_free force_label=raw_dft energy=-15497.554962547585 free_energy=-15497.554962547585 stress="0.019883621314759327 -0.0009521294469618315 0.012002156345887232 -0.0009521294469618315 0.00530786917346803 -0.0005738485094996574 0.012002156345887232 -0.0005738485094996574 -0.029115696135589814" pbc="T T T"
Sr       0.00003626       0.00009419      10.75260867       0.00675969       0.00722840       0.34294634
Sr       1.57628183       3.54684071      14.64522241      -0.67800890       0.57963078       4.48700002
Ti       1.97047258       1.97057465      12.38212169       0.39667237      -0.89409675      -2.60539371
Ti       3.54658061       1.57631572      16.28444791      -0.13176389      -0.02731283       0.14037195
O        0.00000906       1.97050529      12.45001441       1.41320608       0.81835874      -3.15250980
O        1.57656794       1.57638350      16.39256827       0.01668157      -0.08561156      -0.28064491
O        1.97049386       3.94093294      12.44909065       0.10363783       0.04397512      -1.28946197
O        3.54695145       3.54685924      16.37955485      -0.03515906      -0.00063172      -0.04892604
O        1.97043435       1.97038588      10.49176941       0.18622295      -0.06248758       0.31298862
O        3.54692150       1.57633188      14.44792112      -1.27824913      -0.37905260       2.09362976
10
Lattice="3.940949890606662 0.0 0.0 0.0 3.940949890606662 0.0 0.0 0.0 26.940967945119528" Properties=species:S:1:pos:R:3:forces:R:3 tau=tau49 tau_p=4 tau_q=9 stage=B constraint=xy_fixed_z_free force_label=raw_dft energy=-15498.264282643207 free_energy=-15498.264282643207 stress="0.015042176209812618 -0.0007005542603971816 0.009201775619528904 -0.0007005542603971816 0.0036937480859473943 -0.0012808298732032352 0.009201775619528904 -0.0012808298732032352 -0.02769897893533706" pbc="T T T"
Sr       0.00003612       0.00009431      10.75966714       0.00447321       0.00799253       0.32044893
Sr       1.57628196       3.54684090      14.73757287      -0.42854145       0.52857099       2.84493388
Ti       1.97047269       1.97057450      12.32849848       0.35038454      -0.65618435      -1.38695923
Ti       3.54658072       1.57631578      16.28733701      -0.10649535      -0.01911898       0.55490268
O        0.00000902       1.97050521      12.38513039       1.04486316       0.61563703      -2.26588699
O        1.57656794       1.57638358      16.38679217       0.01713486      -0.07457073      -0.03170427
O        1.97049401       3.94093312      12.42255130      -0.03686628      -0.11847361      -0.54915241
O        3.54695139       3.54685933      16.37854782      -0.02927047      -0.00090888       0.16677769
O        1.97043419       1.97038596      10.49821123       0.15852085      -0.06162060      -0.50290341
O        3.54692153       1.57633185      14.49101155      -0.97420333      -0.22132339       0.84954314
10
Lattice="3.940949890606662 0.0 0.0 0.0 3.940949890606662 0.0 0.0 0.0 26.940967945119528" Properties=species:S:1:pos:R:3:forces:R:3 tau=tau49 tau_p=4 tau_q=9 stage=B constraint=xy_fixed_z_free force_label=raw_dft energy=-15498.714866424656 free_energy=-15498.714866424656 stress="0.009586483660297474 -0.0005398766777372775 0.0069807523483614315 -0.0005398766777372775 0.0013083746016592187 -0.0017536810450309527 0.0069807523483614315 -0.0017536810450309527 -0.025456838039019998" pbc="T T T"
Sr       0.00003612       0.00009431      10.77075036       0.00128478       0.00946732       0.06276654
Sr       1.57628196       3.54684090      14.83915806      -0.25853676       0.46044601       1.30356936
Ti       1.97047269       1.97057450      12.27804987       0.31145032      -0.47995991      -0.56110264
Ti       3.54658072       1.57631578      16.30552659      -0.08566196      -0.01149309       0.39445710
O        0.00000902       1.97050521      12.30515272       0.76081642       0.45060640      -1.37320357
O        1.57656794       1.57638358      16.38515018       0.01477999      -0.06121437       0.35285743
O        1.97049401       3.94093312      12.40200655      -0.12285785      -0.21520725      -0.05333728
O        3.54695139       3.54685933      16.38381332      -0.02323043      -0.00065589       0.49891460
O        1.97043419       1.97038596      10.48269941       0.13350325      -0.05619480      -0.95506121
O        3.54692153       1.57633185      14.52301291      -0.73154775      -0.09579468       0.33013967
10
Lattice="3.940949890606662 0.0 0.0 0.0 3.940949890606662 0.0 0.0 0.0 26.940967945119528" Properties=species:S:1:pos:R:3:forces:R:3 tau=tau49 tau_p=4 tau_q=9 stage=B constraint=xy_fixed_z_free force_label=raw_dft energy=-15498.96319928255 free_energy=-15498.96319928255 stress="0.003605604954888247 -0.0004214343453765483 0.005101283710048154 -0.0004214343453765483 -0.0018243791814013105 -0.0020190285958235944 0.005101283710048154 -0.0020190285958235944 -0.022014665139637252" pbc="T T T"
Sr       0.00003612       0.00009431      10.77917043      -0.00263332       0.01072253      -0.45701513
Sr       1.57628196       3.54684090      14.95169399      -0.14402240       0.38061634      -0.11395695
Ti       1.97047269       1.97057450      12.22446522       0.27842322      -0.34491323      -0.36002078
Ti       3.54658072       1.57631578      16.33011858      -0.06522657      -0.00429708       0.23868168
O        0.00000902       1.97050521      12.20329845       0.52471793       0.30840022      -0.36188174
O        1.57656794       1.57638358      16.39832779       0.01221531      -0.04763817       0.73975317
O        1.97049401       3.94093312      12.38674922      -0.16774468      -0.26240165       0.24696809
O        3.54695139       3.54685933      16.40680011      -0.01781337      -0.00136731       0.80875284
O        1.97043419       1.97038596      10.43722623       0.10678897      -0.04514060      -0.77049894
O        3.54692153       1.57633185      14.55746994      -0.52470508       0.00601921       0.02921776
10
Lattice="3.940949890606662 0.0 0.0 0.0 3.940949890606662 0.0 0.0 0.0 26.940967945119528" Properties=species:S:1:pos:R:3:forces:R:3 tau=tau49 tau_p=4 tau_q=9 stage=B constraint=xy_fixed_z_free force_label=raw_dft energy=-15499.04253543278 free_energy=-15499.04253543278 stress="0.0021126806725739384 -0.0003837898831533708 0.00443837391187415 -0.0003837898831533708 -0.0020777906831963592 -0.0020566730580467716 0.00443837391187415 -0.0020566730580467716 -0.0197633426671682" pbc="T T T"
Sr       0.00003612       0.00009431      10.77006691      -0.00395770       0.01082820      -0.65048216
Sr       1.57628196       3.54684090      14.99366908      -0.11171083       0.34496517      -0.47456522
Ti       1.97047269       1.97057450      12.19194931       0.26382398      -0.29817443      -0.26180695
Ti       3.54658072       1.57631578      16.34501485      -0.05856484      -0.00169847       0.29348448
O        0.00000902       1.97050521      12.15476856       0.44340011       0.25772635      -0.01642138
O        1.57656794       1.57638358      16.42187314       0.01102695      -0.04197043       0.75560300
O        1.97049401       3.94093312      12.38587701      -0.17548242      -0.27089169       0.19087638
O        3.54695139       3.54685933      16.43579274      -0.01591976      -0.00219752       0.78289731
O        1.97043419       1.97038596      10.40299338       0.09495804      -0.03880232      -0.58574872
O        3.54692153       1.57633185      14.57331498      -0.44757352       0.04021514      -0.03383700
10
Lattice="3.940949890606662 0.0 0.0 0.0 3.940949890606662 0.0 0.0 0.0 26.940967945119528" Properties=species:S:1:pos:R:3:forces:R:3 tau=tau49 tau_p=4 tau_q=9 stage=B constraint=xy_fixed_z_free force_label=raw_dft energy=-15499.137312274614 free_energy=-15499.137312274614 stress="0.0020318828024363865 -0.0003461454209301933 0.003831471728227312 -0.0003461454209301933 -0.0007115721517795751 -0.002075036210350761 0.003831471728227312 -0.002075036210350761 -0.016041131695149622" pbc="T T T"
Sr       0.00003612       0.00009431      10.74380022      -0.00484216       0.01035383      -0.76268124
Sr       1.57628196       3.54684090      15.02998414      -0.08580054       0.31025939      -0.62530437
Ti       1.97047269       1.97057450      12.14902149       0.24753579      -0.25618960      -0.11535383
Ti       3.54658072       1.57631578      16.36905948      -0.05310331       0.00127270       0.35574966
O        0.00000902       1.97050521      12.10138568       0.37055047       0.21095387       0.23017235
O        1.57656794       1.57638358      16.46454719       0.00963418      -0.03617388       0.62512851
O        1.97049401       3.94093312      12.38725791      -0.17910459      -0.27603595      -0.00271174
O        3.54695139       3.54685933      16.48486778      -0.01406985      -0.00319382       0.60697678
O        1.97043419       1.97038596      10.35417425       0.08246171      -0.03174541      -0.34319342
O        3.54692153       1.57633185      14.59122184      -0.37326196       0.07049913       0.03121731
10
Lattice="3.940949890606662 0.0 0.0 0.0 3.940949890606662 0.0 0.0 0.0 26.940967945119528" Properties=species:S:1:pos:R:3:forces:R:3 tau=tau49 tau_p=4 tau_q=9 stage=B constraint=xy_fixed_z_free force_label=raw_dft energy=-15499.243897632534 free_energy=-15499.243897632534 stress="0.003844325934840104 -0.00029748306732462236 0.00321538796842848 -0.00029748306732462236 0.003095109320837352 -0.002085135944117955 0.00321538796842848 -0.002085135944117955 -0.009989554853370034" pbc="T T T"
Sr       0.00003612       0.00009431      10.68745368      -0.00523245       0.00865948      -0.75006664
Sr       1.57628196       3.54684090      15.06249971      -0.06360061       0.27507770      -0.53604030
Ti       1.97047269       1.97057450      12.08944352       0.22790541      -0.21446214       0.06264493
Ti       3.54658072       1.57631578      16.41139971      -0.04800507       0.00410425       0.42791513
O        0.00000902       1.97050521      12.03678641       0.29820529       0.16389137       0.36432969
O        1.57656794       1.57638358      16.53687166       0.00801619      -0.02978443       0.31416669
O        1.97049401       3.94093312      12.38638893      -0.17841553      -0.27691450      -0.33947663
O        3.54695139       3.54685933      16.56494210      -0.01185433      -0.00411762       0.24839016
O        1.97043419       1.97038596      10.28150536       0.06795760      -0.02396268      -0.00939738
O        3.54692153       1.57633185      14.61802889      -0.29497650       0.09750883       0.21753461
10
Lattice="3.940949890606662 0.0 0.0 0.0 3.940949890606662 0.0 0.0 0.0 26.940967945119528" Properties=species:S:1:pos:R:3:forces:R:3 tau=tau49 tau_p=4 tau_q=9 stage=B constraint=xy_fixed_z_free force_label=raw_dft energy=-15499.307276619093 free_energy=-15499.307276619093 stress="0.006672251389654415 -0.00025616597464064704 0.002883933069341478 -0.00025616597464064704 0.007429731422193963 -0.002099826465961146 0.002883933069341478 -0.002099826465961146 -0.004838690632101111" pbc="T T T"
Sr       0.00003612       0.00009431      10.62333557      -0.00476245       0.00687642      -0.56564244
Sr       1.57628196       3.54684090      15.07286961      -0.05485654       0.25786185      -0.27473831
Ti       1.97047269       1.97057450      12.04586009       0.21587471      -0.19400850       0.14477805
Ti       3.54658072       1.57631578      16.45608555      -0.04690721       0.00603309       0.41261398
O        0.00000902       1.97050521      11.99645228       0.25790350       0.13737558       0.31054093
O        1.57656794       1.57638358      16.60140565       0.00697772      -0.02588998       0.03097485
O        1.97049401       3.94093312      12.37607301      -0.17337077      -0.27221143      -0.57311304
O        3.54695139       3.54685933      16.63367327      -0.01018131      -0.00454622      -0.05205584
O        1.97043419       1.97038596      10.22417785       0.05878647      -0.01953730       0.19492304
O        3.54692153       1.57633185      14.64538706      -0.24946411       0.10804675       0.37171904
10
Lattice="3.940949890606662 0.0 0.0 0.0 3.940949890606662 0.0 0.0 0.0 26.940967945119528" Properties=species:S:1:pos:R:3:forces:R:3 tau=tau49 tau_p=4 tau_q=9 stage=B constraint=xy_fixed_z_free force_label=raw_dft energy=-15499.34828403852 free_energy=-15499.34828403852 stress="0.009353271626036814 -0.00021943967003266895 0.0027535546879831558 -0.00021943967003266895 0.010792024609054356 -0.0021273711944171294 0.0027535546879831558 -0.0021273711944171294 -0.0016067758265990403" pbc="T T T"
Sr       0.00003612       0.00009431      10.56621444      -0.00366896       0.00504373      -0.30414376
Sr       1.57628196       3.54684090      15.06958828      -0.05431584       0.25331485      -0.00674298
Ti       1.97047269       1.97057450      12.02271899       0.20962718      -0.18745193       0.11015634
Ti       3.54658072       1.57631578      16.49612674      -0.04720803       0.00676509       0.30286438
O        0.00000902       1.97050521      11.97978128       0.23887785       0.12486974       0.18820141
O        1.57656794       1.57638358      16.64510051       0.00626912      -0.02392257      -0.11751947
O        1.97049401       3.94093312      12.35483326      -0.16657483      -0.26424616      -0.62830356
O        3.54695139       3.54685933      16.67782203      -0.00890013      -0.00460073      -0.19475335
O        1.97043419       1.97038596      10.19078914       0.05356302      -0.01786865       0.24040123
O        3.54692153       1.57633185      14.67234529      -0.22766939       0.10809638       0.40984001
10
Lattice="3.940949890606662 0.0 0.0 0.0 3.940949890606662 0.0 0.0 0.0 26.940967945119528" Properties=species:S:1:pos:R:3:forces:R:3 tau=tau49 tau_p=4 tau_q=9 stage=B constraint=xy_fixed_z_free force_label=raw_dft energy=-15499.381511451187 free_energy=-15499.381511451187 stress="0.011726709061327398 -0.0001772044197334942 0.0026801020787671995 -0.0001772044197334942 0.013193006772800922 -0.002148488819566717 0.0026801020787671995 -0.002148488819566717 0.000361754100388584" pbc="T T T"
Sr       0.00003612       0.00009431      10.50998303      -0.00229625       0.00321439       0.00319408
Sr       1.57628196       3.54684090      15.06433629      -0.05678744       0.25212392       0.23408814
Ti       1.97047269       1.97057450      12.00815994       0.20536095      -0.18540739      -0.00452154
Ti       3.54658072       1.57631578      16.53823417      -0.04837222       0.00705074       0.10887748
O        0.00000902       1.97050521      11.97328627       0.22562227       0.11709009       0.07005151
O        1.57656794       1.57638358      16.67818033       0.00536538      -0.02249947      -0.15319147
O        1.97049401       3.94093312      12.31886105      -0.15764051      -0.25174468      -0.54117145
O        3.54695139       3.54685933      16.70881183      -0.00753976      -0.00441638      -0.21296499
O        1.97043419       1.97038596      10.16960154       0.04931864      -0.01751255       0.16313264
O        3.54692153       1.57633185      14.70586551      -0.21303107       0.10210108       0.33250560
10
Lattice="3.940949890606662 0.0 0.0 0.0 3.940949890606662 0.0 0.0 0.0 26.940967945119528" Properties=species:S:1:pos:R:3:forces:R:3 tau=tau49 tau_p=4 tau_q=9 stage=B constraint=xy_fixed_z_free force_label=raw_dft energy=-15499.400849085076 free_energy=-15499.400849085076 stress="0.012584268273923685 -0.00014598706081671281 0.002610322100012041 -0.00014598706081671281 0.013616277433407868 -0.0021282893520323293 0.002610322100012041 -0.0021282893520323293 0.0005398766777372775" pbc="T T T"
Sr       0.00003612       0.00009431      10.47877957      -0.00163316       0.00212013       0.18113499
Sr       1.57628196       3.54684090      15.06820692      -0.05805448       0.24804538       0.31560677
Ti       1.97047269       1.97057450      12.00032097       0.19983179      -0.18228607      -0.10656863
Ti       3.54658072       1.57631578      16.56540465      -0.04759138       0.00729036      -0.02357059
O        0.00000902       1.97050521      11.97190115       0.21667149       0.11306375       0.03538224
O        1.57656794       1.57638358      16.69210328       0.00465807      -0.02153736      -0.09169377
O        1.97049401       3.94093312      12.28291439      -0.14978399      -0.23892156      -0.39328700
O        3.54695139       3.54685933      16.71978545      -0.00647481      -0.00424309      -0.13702926
O        1.97043419       1.97038596      10.16215425       0.04634491      -0.01794630       0.03354415
O        3.54692153       1.57633185      14.73374934      -0.20396818       0.09441476       0.18648083
10
Lattice="3.940949890606662 0.0 0.0 0.0 3.940949890606662 0.0 0.0 0.0 26.940967945119528" Properties=species:S:1:pos:R:3:forces:R:3 tau=tau49 tau_p=4 tau_q=9 stage=B constraint=xy_fixed_z_free force_label=raw_dft energy=-15499.416825976998 free_energy=-15499.416825976998 stress="0.01247592567533015 -0.00011844233236072926 0.0024762710881929212 -0.00011844233236072926 0.012950613162388267 -0.0020493277971251763 0.0024762710881929212 -0.0020493277971251763 -8.722497344394792e-05" pbc="T T T"
Sr       0.00003612       0.00009431      10.45856589      -0.00144933       0.00140948       0.26001849
Sr       1.57628196       3.54684090      15.08605215      -0.05638712       0.23534259       0.27718652
Ti       1.97047269       1.97057450      11.98760880       0.18901233      -0.17272980      -0.16542298
Ti       3.54658072       1.57631578      16.58867634      -0.04492103       0.00764466      -0.10172364
O        0.00000902       1.97050521      11.96706568       0.20454745       0.10799482       0.05642620
O        1.57656794       1.57638358      16.70218250       0.00412713      -0.02018007       0.01271256
O        1.97049401       3.94093312      12.24133347      -0.14044625      -0.22277298      -0.22742487
O        3.54695139       3.54685933      16.72657763      -0.00528362      -0.00398187      -0.02243262
O        1.97043419       1.97038596      10.15417123       0.04264869      -0.01824583      -0.10277882
O        3.54692153       1.57633185      14.76308627      -0.19184800       0.08551926       0.01343916
10
Lattice="3.940949890606662 0.0 0.0 0.0 3.940949890606662 0.0 0.0 0.0 26.940967945119528" Properties=species:S:1:pos:R:3:forces:R:3 tau=tau49 tau_p=4 tau_q=9 stage=B constraint=xy_fixed_z_free force_label=raw_dft energy=-15499.429502128056 free_energy=-15499.429502128056 stress="0.011701918805717013 -9.640654959594242e-05 0.0022797853585402386 -9.640654959594242e-05 0.01175609010501378 -0.0019180312581516547 0.0022797853585402386 -0.0019180312581516547 -0.0008685771039786813" pbc="T T T"
Sr       0.00003612       0.00009431      10.44609253      -0.00165450       0.00108886       0.23055391
Sr       1.57628196       3.54684090      15.11655388      -0.05212243       0.21448477       0.15247850
Ti       1.97047269       1.97057450      11.96600545       0.17361246      -0.15686095      -0.16457528
Ti       3.54658072       1.57631578      16.60924307      -0.04045451       0.00754619      -0.10990618
O        0.00000902       1.97050521      11.95598449       0.18916866       0.10115260       0.10338791
O        1.57656794       1.57638358      16.71566912       0.00369853      -0.01821678       0.10419164
O        1.97049401       3.94093312      12.19907960      -0.13000835      -0.20484930      -0.10125364
O        3.54695139       3.54685933      16.73720514      -0.00414950      -0.00359569       0.07365696
O        1.97043419       1.97038596      10.13845972       0.03810478      -0.01785271      -0.17476457
O        3.54692153       1.57633185      14.79102697      -0.17619487       0.07710276      -0.11376926
10
Lattice="3.940949890606662 0.0 0.0 0.0 3.940949890606662 0.0 0.0 0.0 26.940967945119528" Properties=species:S:1:pos:R:3:forces:R:3 tau=tau49 tau_p=4 tau_q=9 stage=B constraint=xy_fixed_z_free force_label=raw_dft energy=-15499.439339451495 free_energy=-15499.439339451495 stress="0.010858131957348716 -7.896155490715285e-05 0.0020548367428163726 -7.896155490715285e-05 0.010671745961463227 -0.0017573536754917506 0.0020548367428163726 -0.0017573536754917506 -0.0011678964865337025" pbc="T T T"
Sr       0.00003612       0.00009431      10.43361697      -0.00197306       0.00098525       0.13588023
Sr       1.57628196       3.54684090      15.15418507      -0.04697534       0.18936355       0.01269097
Ti       1.97047269       1.97057450      11.93441687       0.15603485      -0.13770160      -0.11807200
Ti       3.54658072       1.57631578      16.63124487      -0.03557558       0.00679440      -0.07133140
O        0.00000902       1.97050521      11.93924312       0.17207236       0.09293252       0.13496183
O        1.57656794       1.57638358      16.73890477       0.00336197      -0.01586242       0.14117902
O        1.97049401       3.94093312      12.15679289      -0.11860782      -0.18616535      -0.03483485
O        3.54695139       3.54685933      16.75803641      -0.00316991      -0.00316837       0.11214869
O        1.97043419       1.97038596      10.11114141       0.03308470      -0.01663632      -0.15844243
O        3.54692153       1.57633185      14.81773758      -0.15825217       0.06945887      -0.15418031
10
Lattice="3.940949890606662 0.0 0.0 0.0 3.940949890606662 0.0 0.0 0.0 26.940967945119528" Properties=species:S:1:pos:R:3:forces:R:3 tau=tau49 tau_p=4 tau_q=9 stage=B constraint=xy_fixed_z_free force_label=raw_dft energy=-15499.44539330412 free_energy=-15499.44539330412 stress="0.010528513373492112 -6.702550590955998e-05 0.001870287062161283 -6.702550590955998e-05 0.010208076365787504 -0.0016141210875206362 0.001870287062161283 -0.0016141210875206362 -0.000721671885546769" pbc="T T T"
Sr       0.00003612       0.00009431      10.41818813      -0.00216101       0.00082275       0.04751939
Sr       1.57628196       3.54684090      15.18657834      -0.04304155       0.16808998      -0.06189725
Ti       1.97047269       1.97057450      11.90074155       0.14146338      -0.12184175      -0.05611664
Ti       3.54658072       1.57631578      16.65351609      -0.03256945       0.00596676      -0.02516004
O        0.00000902       1.97050521      11.92309666       0.15809662       0.08584116       0.12055286
O        1.57656794       1.57638358      16.76877579       0.00321722      -0.01377546       0.10950637
O        1.97049401       3.94093312      12.11995712      -0.10847690      -0.17037749      -0.02528809
O        3.54695139       3.54685933      16.78582313      -0.00239678      -0.00286292       0.08270365
O        1.97043419       1.97038596      10.07870368       0.02883107      -0.01515614      -0.08267794
O        3.54692153       1.57633185      14.83993947      -0.14296259       0.06329336      -0.10914230
10
Lattice="3.940949890606662 0.0 0.0 0.0 3.940949890606662 0.0 0.0 0.0 26.940967945119528" Properties=species:S:1:pos:R:3:forces:R:3 tau=tau49 tau_p=4 tau_q=9 stage=B constraint=xy_fixed_z_free force_label=raw_dft energy=-15499.447784640535 free_energy=-15499.447784640535 stress="0.010741525940218386 -6.059840260316382e-05 0.0017757168277957396 -6.059840260316382e-05 0.010262247665084271 -0.001530568744537486 0.0017757168277957396 -0.001530568744537486 -2.8462886071183002e-05" pbc="T T T"
Sr       0.00003612       0.00009431      10.40514168      -0.00215176       0.00069368       0.01162190
Sr       1.57628196       3.54684090      15.20328722      -0.04153103       0.15641203      -0.05840287
Ti       1.97047269       1.97057450      11.87820251       0.13325873      -0.11394101      -0.01654762
Ti       3.54658072       1.57631578      16.66940669      -0.03098282       0.00547156       0.00088780
O        0.00000902       1.97050521      11.91533441       0.15115515       0.08230770       0.07526159
O        1.57656794       1.57638358      16.79219408       0.00310975      -0.01247088       0.05267239
O        1.97049401       3.94093312      12.09557790      -0.10227103      -0.16089141      -0.03223341
O        3.54695139       3.54685933      16.80734673      -0.00201934      -0.00265672       0.03123710
O        1.97043419       1.97038596      10.05561557       0.02631396      -0.01425625      -0.01703587
O        3.54692153       1.57633185      14.85321318      -0.13488161       0.05933155      -0.04746076
10
Lattice="3.940949890606662 0.0 0.0 0.0 3.940949890606662 0.0 0.0 0.0 26.940967945119528" Properties=species:S:1:pos:R:3:forces:R:3 tau=tau49 tau_p=4 tau_q=9 stage=B constraint=xy_fixed_z_free force_label=raw_dft energy=-15499.448431863302 free_energy=-15499.448431863302 stress="0.011023400328084618 -5.876208737276491e-05 0.0017573536754917506 -5.876208737276491e-05 0.010358654214680213 -0.0015030240160815026 0.0017573536754917506 -0.0015030240160815026 0.00032227332293500755" pbc="T T T"
Sr       0.00003612       0.00009431      10.40020763      -0.00214327       0.00065435       0.00909502
Sr       1.57628196       3.54684090      15.20632826      -0.04164210       0.15305366      -0.03307673
Ti       1.97047269       1.97057450      11.87066845       0.13067529      -0.11196537      -0.00124184
Ti       3.54658072       1.57631578      16.67528007      -0.03070463       0.00515378       0.00269503
O        0.00000902       1.97050521      11.91610493       0.15034731       0.08198991       0.03798136
O        1.57656794       1.57638358      16.80154880       0.00311875      -0.01206002       0.01948202
O        1.97049401       3.94093312      12.08508569      -0.09999972      -0.15753612      -0.02780648
O        3.54695139       3.54685933      16.81521314      -0.00185531      -0.00257573       0.00390422
O        1.97043419       1.97038596      10.04776583       0.02548195      -0.01411587       0.00448940
O        3.54692153       1.57633185      14.85711716      -0.13327827       0.05740142      -0.01552175
10
Lattice="3.940949890606662 0.0 0.0 0.0 3.940949890606662 0.0 0.0 0.0 26.940967945119528" Properties=species:S:1:pos:R:3:forces:R:3 tau=tau49 tau_p=4 tau_q=9 stage=B constraint=xy_fixed_z_free force_label=raw_dft energy=-15499.44872384145 free_energy=-15499.44872384145 stress="0.011214377112046103 -5.876208737276491e-05 0.0017747986701805401 -5.876208737276491e-05 0.01036691763321701 -0.001502105858466303 0.0017747986701805401 -0.001502105858466303 0.00040582566591815765" pbc="T T T"
Sr       0.00003612       0.00009431      10.40154604      -0.00217335       0.00068854       0.01152754
Sr       1.57628196       3.54684090      15.20300139      -0.04234710       0.15369155      -0.01121001
Ti       1.97047269       1.97057450      11.87147890       0.13099565      -0.11290254       0.00136783
Ti       3.54658072       1.57631578      16.67452201      -0.03109029       0.00504939      -0.00025968
O        0.00000902       1.97050521      11.92114132       0.15263354       0.08329243       0.01301312
O        1.57656794       1.57638358      16.80217142       0.00317351      -0.01207390       0.00358900
O        1.97049401       3.94093312      12.08285854      -0.09987939      -0.15745796      -0.01618844
O        3.54695139       3.54685933      16.81464836      -0.00182471      -0.00255053      -0.00657971
O        1.97043419       1.97038596      10.04859912       0.02554288      -0.01432053       0.00665093
O        3.54692153       1.57633185      14.85535287      -0.13503074       0.05658355      -0.00191084
