10
Lattice="3.940949890606662 0.0 0.0 0.0 3.940949890606662 0.0 0.0 0.0 26.940967945119528" Properties=species:S:1:pos:R:3:forces:R:3 tau=tau57 tau_p=5 tau_q=7 stage=B constraint=xy_fixed_z_free force_label=raw_dft energy=-15499.20861099839 free_energy=-15499.20861099839 stress="0.010489032596038537 0.0 -9.181576151994517e-07 0.0 0.009503849474929525 -0.00199332018259801 -9.181576151994517e-07 -0.00199332018259801 -0.00299778461362621" pbc="T T T"
Sr       0.00003626       0.00009419      10.38442227      -0.00015195       0.00079781       0.02747249
Sr       1.97037682       2.75865074      15.26470466      -0.00019000       0.22250815       0.01712123
Ti       1.97047258       1.97057465      11.82312987       0.00007688      -0.16332444      -0.08590878
Ti       3.94067560       0.78812574      16.69553628       0.00074356       0.00138094       0.06134035
O        0.00000906       1.97050529      11.95695823      -0.00001671       0.13284427      -0.13426995
O        1.97066293       0.78819352      16.83124958      -0.00063686      -0.01860862       0.06461208
O        1.97049386       3.94093294      11.98719083      -0.00002957      -0.19876864      -0.01744391
O        0.00009655       2.75866926      16.83171028       0.00020595      -0.00392222       0.07978802
O        1.97043435       1.97038588      10.01152053       0.00015529      -0.02188369      -0.06670933
O        0.00006660       0.78814190      14.88889647      -0.00015632       0.04897643       0.05399805
10
Lattice="3.940949890606662 0.0 0.0 0.0 3.940949890606662 0.0 0.0 0.0 26.940967945119528" Properties=species:S:1:pos:R:3:forces:R:3 tau=tau57 tau_p=5 tau_q=7 stage=B constraint=xy_fixed_z_free force_label=raw_dft energy=-15499.209574825607 free_energy=-15499.209574825607 stress="0.010417416302052979 0.0 -9.181576151994517e-07 0.0 0.009498340529238328 -0.00199240202498281 -9.181576151994517e-07 -0.00199240202498281 -0.0030069661897782047" pbc="T T T"
Sr       0.00003612       0.00009431      10.38498776      -0.00013961       0.00087006       0.01093079
Sr       1.97037695       2.75865092      15.26505712      -0.00019360       0.22190986       0.02300597
Ti       1.97047269       1.97057450      11.82136187       0.00008408      -0.16268604      -0.07838831
Ti       3.94067571       0.78812580      16.69679894       0.00074511       0.00146347       0.06347925
O        0.00000902       1.97050521      11.95419468      -0.00002057       0.13196418      -0.12348289
O        1.97066294       0.78819359      16.83257961      -0.00064020      -0.01854151       0.06113826
O        1.97049401       3.94093312      11.98683195      -0.00003702      -0.19860949      -0.01883333
O        0.00009646       2.75866935      16.83335262       0.00020569      -0.00393610       0.07468232
O        1.97043419       1.97038596      10.01014748       0.00015658      -0.02176027      -0.06319206
O        0.00006661       0.78814187      14.89000794      -0.00016069       0.04932584       0.05065973
10
Lattice="3.940949890606662 0.0 0.0 0.0 3.940949890606662 0.0 0.0 0.0 26.940967945119528" Properties=species:S:1:pos:R:3:forces:R:3 tau=tau57 tau_p=5 tau_q=7 stage=B constraint=xy_fixed_z_free force_label=raw_dft energy=-15499.210575796364 free_energy=-15499.210575796364 stress="0.010360490529910612 0.0 -9.181576151994517e-07 0.0 0.00951119473585112 -0.001990565709752411 -9.181576151994517e-07 -0.001990565709752411 -0.002988603037474215" pbc="T T T"
Sr       0.00003612       0.00009431      10.38537941      -0.00014475       0.00095079      -0.00637659
Sr       1.97037695       2.75865092      15.26556140      -0.00018923       0.22124034       0.02934014
Ti       1.97047269       1.97057450      11.81942684       0.00007482      -0.16197744      -0.07152552
Ti       3.94067571       0.78812580      16.69830123       0.00073534       0.00156657       0.06267064
O        0.00000902       1.97050521      11.95115482      -0.00001825       0.13098665      -0.11201191
O        1.97066294       0.78819359      16.83407001      -0.00063249      -0.01846335       0.05833627
O        1.97049401       3.94093312      11.98639218      -0.00003162      -0.19841512      -0.02036237
O        0.00009646       2.75866935      16.83517997       0.00021134      -0.00394459       0.07026594
O        1.97043419       1.97038596      10.00860759       0.00015375      -0.02162761      -0.06066646
O        0.00006661       0.78814187      14.89124652      -0.00015889       0.04968348       0.05032986
10
Lattice="3.940949890606662 0.0 0.0 0.0 3.940949890606662 0.0 0.0 0.0 26.940967945119528" Properties=species:S:1:pos:R:3:forces:R:3 tau=tau57 tau_p=5 tau_q=7 stage=B constraint=xy_fixed_z_free force_label=raw_dft energy=-15499.21199840751 free_energy=-15499.21199840751 stress="0.010271429241236266 0.0 -9.181576151994517e-07 0.0 0.009524967100079112 -0.0019868930792916136 -9.181576151994517e-07 -0.0019868930792916136 -0.0029647309394790294" pbc="T T T"
Sr       0.00003612       0.00009431      10.38550337      -0.00014578       0.00103178      -0.02820757
Sr       1.97037695       2.75865092      15.26655923      -0.00019309       0.22012140       0.03699920
Ti       1.97047269       1.97057450      11.81651030       0.00008253      -0.16086647      -0.06158075
Ti       3.94067571       0.78812580      16.70069396       0.00073354       0.00174989       0.06011213
O        0.00000902       1.97050521      11.94659504      -0.00002108       0.12948333      -0.09577179
O        1.97066294       0.78819359      16.83638919      -0.00062889      -0.01833582       0.05453695
O        1.97049401       3.94093312      11.98563905      -0.00003291      -0.19802251      -0.02351660
O        0.00009646       2.75866935      16.83799465       0.00021237      -0.00395127       0.06404592
O        1.97043419       1.97038596      10.00620027       0.00015375      -0.02141960      -0.05649768
O        0.00006661       0.78814187      14.89323490      -0.00016018       0.05020953       0.04988017
10
Lattice="3.940949890606662 0.0 0.0 0.0 3.940949890606662 0.0 0.0 0.0 26.940967945119528" Properties=species:S:1:pos:R:3:forces:R:3 tau=tau57 tau_p=5 tau_q=7 stage=B constraint=xy_fixed_z_free force_label=raw_dft energy=-15499.213966879019 free_energy=-15499.213966879019 stress="0.010144723490338741 0.0 -9.181576151994517e-07 0.0 0.009547921040459099 -0.001981384133600417 -9.181576151994517e-07 -0.001981384133600417 -0.0029270864772558518" pbc="T T T"
Sr       0.00003612       0.00009431      10.38508598      -0.00014681       0.00113823      -0.05701113
Sr       1.97037695       2.75865092      15.26837280      -0.00019360       0.21834142       0.04693343
Ti       1.97047269       1.97057450      11.81212230       0.00008228      -0.15923767      -0.04865016
Ti       3.94067571       0.78812580      16.70444588       0.00071605       0.00202552       0.05609453
O        0.00000902       1.97050521      11.93975536      -0.00002185       0.12720507      -0.07248171
O        1.97066294       0.78819359      16.83999712      -0.00062015      -0.01812885       0.04968734
O        1.97049401       3.94093312      11.98433913      -0.00003265      -0.19728460      -0.02872231
O        0.00009646       2.75866935      16.84232676       0.00021777      -0.00394047       0.05566284
O        1.97043419       1.97038596      10.00246380       0.00015658      -0.02109050      -0.05074972
O        0.00006661       0.78814187      14.89641083      -0.00015761       0.05097186       0.04923688
10
Lattice="3.940949890606662 0.0 0.0 0.0 3.940949890606662 0.0 0.0 0.0 26.940967945119528" Properties=species:S:1:pos:R:3:forces:R:3 tau=tau57 tau_p=5 tau_q=7 stage=B constraint=xy_fixed_z_free force_label=raw_dft energy=-15499.216591961222 free_energy=-15499.216591961222 stress="0.009981291434833239 0.0 -9.181576151994517e-07 0.0 0.009600256024525466 -0.0019731207150636217 -9.181576151994517e-07 -0.0019731207150636217 -0.0028527157104246965" pbc="T T T"
Sr       0.00003612       0.00009431      10.38359684      -0.00014861       0.00127630      -0.09548126
Sr       1.97037695       2.75865092      15.27155511      -0.00019566       0.21552452       0.06010314
Ti       1.97047269       1.97057450      11.80547551       0.00008767      -0.15671825      -0.03145590
Ti       3.94067571       0.78812580      16.71031847       0.00069857       0.00234845       0.05087236
O        0.00000902       1.97050521      11.92949584      -0.00002494       0.12377753      -0.03911496
O        1.97066294       0.78819359      16.84563102      -0.00060884      -0.01778946       0.04326652
O        1.97049401       3.94093312      11.98210034      -0.00003265      -0.19595508      -0.03719923
O        0.00009646       2.75866935      16.84901503       0.00022394      -0.00392427       0.04410445
O        1.97043419       1.97038596       9.99665480       0.00015787      -0.02058965      -0.04324364
O        0.00006661       0.78814187      14.90147701      -0.00015735       0.05205018       0.04814853
10
Lattice="3.940949890606662 0.0 0.0 0.0 3.940949890606662 0.0 0.0 0.0 26.940967945119528" Properties=species:S:1:pos:R:3:forces:R:3 tau=tau57 tau_p=5 tau_q=7 stage=B constraint=xy_fixed_z_free force_label=raw_dft energy=-15499.2198910694 free_energy=-15499.2198910694 stress="0.009759097291954972 0.0 -9.181576151994517e-07 0.0 0.009685644682739015 -0.001957512035605231 -9.181576151994517e-07 -0.001957512035605231 -0.002734273378063967" pbc="T T T"
Sr       0.00003612       0.00009431      10.38002754      -0.00014887       0.00140485      -0.14528867
Sr       1.97037695       2.75865092      15.27705858      -0.00019720       0.21110505       0.07668598
Ti       1.97047269       1.97057450      11.79535135       0.00009359      -0.15280143      -0.00798893
Ti       3.94067571       0.78812580      16.71955372       0.00066952       0.00271868       0.04327912
O        0.00000902       1.97050521      11.91410656      -0.00002777       0.11867775       0.00788506
O        1.97066294       0.78819359      16.85446841      -0.00059315      -0.01726496       0.03489758
O        1.97049401       3.94093312      11.97822742      -0.00003265      -0.19358941      -0.05110196
O        0.00009646       2.75866935      16.85937846       0.00023268      -0.00388417       0.02835824
O        1.97043419       1.97038596       9.98757654       0.00015992      -0.01983940      -0.03341483
O        0.00006661       0.78814187      14.90957140      -0.00015632       0.05347303       0.04668815
10
Lattice="3.940949890606662 0.0 0.0 0.0 3.940949890606662 0.0 0.0 0.0 26.940967945119528" Properties=species:S:1:pos:R:3:forces:R:3 tau=tau57 tau_p=5 tau_q=7 stage=B constraint=xy_fixed_z_free force_label=raw_dft energy=-15499.223681479118 free_energy=-15499.223681479118 stress="0.00947814106170394 0.0 -9.181576151994517e-07 0.0 0.009835304374016527 -0.001930885464764447 -9.181576151994517e-07 -0.001930885464764447 -0.0025341150179504866" pbc="T T T"
Sr       0.00003612       0.00009431      10.37239796      -0.00015324       0.00147684      -0.20774848
Sr       1.97037695       2.75865092      15.28657355      -0.00020209       0.20407694       0.09716970
Ti       1.97047269       1.97057450      11.77985640       0.00009796      -0.14693700       0.02012608
Ti       3.94067571       0.78812580      16.73417906       0.00064895       0.00354067       0.03284456
O        0.00000902       1.97050521      11.89102264      -0.00003368       0.11118196       0.07387731
O        1.97066294       0.78819359      16.86845637      -0.00057387      -0.01647974       0.02430695
O        1.97049401       3.94093312      11.97140184      -0.00003394      -0.18942217      -0.07284218
O        0.00009646       2.75866935      16.87554860       0.00024246      -0.00381783       0.00754799
O        1.97043419       1.97038596       9.97326367       0.00016352      -0.01874694      -0.01987360
O        0.00006661       0.78814187      14.92261988      -0.00015581       0.05512754       0.04459167
10
Lattice="3.940949890606662 0.0 0.0 0.0 3.940949890606662 0.0 0.0 0.0 26.940967945119528" Properties=species:S:1:pos:R:3:forces:R:3 tau=tau57 tau_p=5 tau_q=7 stage=B constraint=xy_fixed_z_free force_label=raw_dft energy=-15499.227672028559 free_energy=-15499.227672028559 stress="0.009157704053999332 0.0 -9.181576151994517e-07 0.0 0.01009973376719397 -0.001882223111158876 -9.181576151994517e-07 -0.001882223111158876 -0.002207250906939482" pbc="T T T"
Sr       0.00003612       0.00009431      10.35628554      -0.00015992       0.00138248      -0.27657228
Sr       1.97037695       2.75865092      15.30349216      -0.00020517       0.19290164       0.11918040
Ti       1.97047269       1.97057450      11.75570805       0.00011261      -0.13819628       0.05526458
Ti       3.94067571       0.78812580      16.75783317       0.00062066       0.00460819       0.01824018
O        0.00000902       1.97050521      11.85639676      -0.00004191       0.10040852       0.16037153
O        1.97066294       0.78819359      16.89110151      -0.00054970      -0.01522993       0.01125500
O        1.97049401       3.94093312      11.95882654      -0.00003805      -0.18179473      -0.10753819
O        0.00009646       2.75866935      16.90123891       0.00025145      -0.00364274      -0.01854871
O        1.97043419       1.97038596       9.95025306       0.00016455      -0.01705001      -0.00445572
O        0.00006661       0.78814187      14.94418427      -0.00015427       0.05661286       0.04280321
10
Lattice="3.940949890606662 0.0 0.0 0.0 3.940949890606662 0.0 0.0 0.0 26.940967945119528" Properties=species:S:1:pos:R:3:forces:R:3 tau=tau57 tau_p=5 tau_q=7 stage=B constraint=xy_fixed_z_free force_label=raw_dft energy=-15499.231122295978 free_energy=-15499.231122295978 stress="0.009069560922940183 0.0 -9.181576151994517e-07 0.0 0.01036324500275621 -0.0018363152303989036 -9.181576151994517e-07 -0.0018363152303989036 -0.0019161949429212556" pbc="T T T"
Sr       0.00003612       0.00009431      10.33849142      -0.00015478       0.00117962      -0.29165514
Sr       1.97037695       2.75865092      15.31922939      -0.00020775       0.18375340       0.12537727
Ti       1.97047269       1.97057450      11.73709015       0.00009976      -0.13124222       0.07228759
Ti       3.94067571       0.78812580      16.77718450       0.00059778       0.00444415       0.00801284
O        0.00000902       1.97050521      11.83161913      -0.00004294       0.09293098       0.20341591
O        1.97066294       0.78819359      16.90970192      -0.00053710      -0.01422411       0.00587883
O        1.97049401       3.94093312      11.94629822      -0.00003651      -0.17449074      -0.13279774
O        0.00009646       2.75866935      16.92170476       0.00025891      -0.00340337      -0.03162251
O        1.97043419       1.97038596       9.93151328       0.00017458      -0.01572692       0.00289918
O        0.00006661       0.78814187      14.96248719      -0.00015170       0.05677896       0.03820351
10
Lattice="3.940949890606662 0.0 0.0 0.0 3.940949890606662 0.0 0.0 0.0 26.940967945119528" Properties=species:S:1:pos:R:3:forces:R:3 tau=tau57 tau_p=5 tau_q=7 stage=B constraint=xy_fixed_z_free force_label=raw_dft energy=-15499.236617362836 free_energy=-15499.236617362836 stress="0.009142095374540941 0.0 -9.181576151994517e-07 0.0 0.010737853309757588 -0.001772044197334942 -9.181576151994517e-07 -0.001772044197334942 -0.0015259779564614888" pbc="T T T"
Sr       0.00003612       0.00009431      10.31123603      -0.00015144       0.00080064      -0.26578856
Sr       1.97037695       2.75865092      15.34116528      -0.00020723       0.17212250       0.12265988
Ti       1.97047269       1.97057450      11.71491645       0.00009976      -0.12276812       0.07373847
Ti       3.94067571       0.78812580      16.80152545       0.00058030       0.00426777       0.00144213
O        0.00000902       1.97050521      11.80444597      -0.00004499       0.08477441       0.22611053
O        1.97066294       0.78819359      16.93329132      -0.00052605      -0.01310954       0.00449069
O        1.97049401       3.94093312      11.92766800      -0.00003754      -0.16444004      -0.15835064
O        0.00009646       2.75866935      16.94688618       0.00026122      -0.00323882      -0.04021822
O        1.97043419       1.97038596       9.90795767       0.00017252      -0.01435653       0.00959021
O        0.00006661       0.78814187      14.98622761      -0.00014707       0.05594746       0.02632604
10
Lattice="3.940949890606662 0.0 0.0 0.0 3.940949890606662 0.0 0.0 0.0 26.940967945119528" Properties=species:S:1:pos:R:3:forces:R:3 tau=tau57 tau_p=5 tau_q=7 stage=B constraint=xy_fixed_z_free force_label=raw_dft energy=-15499.244783363076 free_energy=-15499.244783363076 stress="0.009435905811404764 0.0 -9.181576151994517e-07 0.0 0.011248348943808481 -0.001679310278199797 -9.181576151994517e-07 -0.001679310278199797 -0.0010017099581826018" pbc="T T T"
Sr       0.00003612       0.00009431      10.27035294      -0.00014887       0.00013498      -0.18657441
Sr       1.97037695       2.75865092      15.37252899      -0.00020620       0.15725998       0.10824061
Ti       1.97047269       1.97057450      11.68698903       0.00009385      -0.11283775       0.05050469
Ti       3.94067571       0.78812580      16.83358854       0.00057901       0.00394999       0.00358566
O        0.00000902       1.97050521      11.77348372      -0.00004834       0.07582466       0.21900965
O        1.97066294       0.78819359      16.96461815      -0.00051782      -0.01168104       0.00838874
O        1.97049401       3.94093312      11.89934232      -0.00004139      -0.15061162      -0.18217834
O        0.00009646       2.75866935      16.97929480       0.00026431      -0.00292232      -0.04293819
O        1.97043419       1.97038596       9.87707363       0.00017098      -0.01290154       0.01194432
O        0.00006661       0.78814187      15.01804785      -0.00014527       0.05378465       0.01001702
10
Lattice="3.940949890606662 0.0 0.0 0.0 3.940949890606662 0.0 0.0 0.0 26.940967945119528" Properties=species:S:1:pos:R:3:forces:R:3 tau=tau57 tau_p=5 tau_q=7 stage=B constraint=xy_fixed_z_free force_label=raw_dft energy=-15499.254518371712 free_energy=-15499.254518371712 stress="0.009972109858681246 0.0 -9.181576151994517e-07 0.0 0.011870859806913712 -0.0015425047935350787 -9.181576151994517e-07 -0.0015425047935350787 -0.0003094191163222152" pbc="T T T"
Sr       0.00003612       0.00009431      10.20902831      -0.00013884      -0.00050342      -0.04526093
Sr       1.97037695       2.75865092      15.41945850      -0.00020209       0.13733316       0.07412310
Ti       1.97047269       1.97057450      11.64784033       0.00008639      -0.10178689       0.00870061
Ti       3.94067571       0.78812580      16.87942889       0.00056204       0.00503165      -0.00916907
O        0.00000902       1.97050521      11.73418192      -0.00004577       0.06523454       0.17855052
O        1.97066294       0.78819359      17.00958142      -0.00051088      -0.00969023       0.01940540
O        1.97049401       3.94093312      11.85446287      -0.00003985      -0.13145716      -0.19955283
O        0.00009646       2.75866935      17.02453703       0.00026225      -0.00248009      -0.03526782
O        1.97043419       1.97038596       9.83330631       0.00017021      -0.01118816       0.00512961
O        0.00006661       0.78814187      15.06349437      -0.00014295       0.04950659       0.00334192
10
Lattice="3.940949890606662 0.0 0.0 0.0 3.940949890606662 0.0 0.0 0.0 26.940967945119528" Properties=species:S:1:pos:R:3:forces:R:3 tau=tau57 tau_p=5 tau_q=7 stage=B constraint=xy_fixed_z_free force_label=raw_dft energy=-15499.260491542584 free_energy=-15499.260491542584 stress="0.010621247292627258 0.0 -9.181576151994517e-07 0.0 0.012258322320527879 -0.0013946814174879672 -9.181576151994517e-07 -0.0013946814174879672 0.00029381043686382456" pbc="T T T"
Sr       0.00003612       0.00009431      10.14468031      -0.00013447      -0.00097573       0.11566210
Sr       1.97037695       2.75865092      15.46976606      -0.00019618       0.11858211       0.02188060
Ti       1.97047269       1.97057450      11.60844553       0.00007842      -0.09114329      -0.05075049
Ti       3.94067571       0.78812580      16.92549727       0.00057233       0.00529313      -0.01157074
O        0.00000902       1.97050521      11.70061095      -0.00003934       0.05648765       0.10829127
O        1.97066294       0.78819359      17.05594255      -0.00051628      -0.00799279       0.03314615
O        1.97049401       3.94093312      11.80204492      -0.00003805      -0.11253024      -0.18796281
O        0.00009646       2.75866935      17.06929685       0.00025248      -0.00214147      -0.01684535
O        1.97043419       1.97038596       9.78897007       0.00016404      -0.00974602      -0.01263697
O        0.00006661       0.78814187      15.11006545      -0.00014321       0.04416667       0.00078624
10
Lattice="3.940949890606662 0.0 0.0 0.0 3.940949890606662 0.0 0.0 0.0 26.940967945119528" Properties=species:S:1:pos:R:3:forces:R:3 tau=tau57 tau_p=5 tau_q=7 stage=B constraint=xy_fixed_z_free force_label=raw_dft energy=-15499.262664235528 free_energy=-15499.262664235528 stress="0.01086731353350071 0.0 -9.181576151994517e-07 0.0 0.012149979721934344 -0.0013285740691936067 -9.181576151994517e-07 -0.0013285740691936067 0.0003975622473813626" pbc="T T T"
Sr       0.00003612       0.00009431      10.12152401      -0.00013164      -0.00104850       0.16397108
Sr       1.97037695       2.75865092      15.49013688      -0.00019180       0.11109660      -0.00344785
Ti       1.97047269       1.97057450      11.59245745       0.00006813      -0.08669786      -0.07045208
Ti       3.94067571       0.78812580      16.94282876       0.00059418       0.00457014       0.00060421
O        0.00000902       1.97050521      11.69157120      -0.00003831       0.05399857       0.06774883
O        1.97066294       0.78819359      17.07450315      -0.00052168      -0.00731993       0.03538815
O        1.97049401       3.94093312      11.77668367      -0.00003780      -0.10483519      -0.16251403
O        0.00009646       2.75866935      17.08579701       0.00024425      -0.00199158      -0.00626038
O        1.97043419       1.97038596       9.77172312       0.00016147      -0.00932308      -0.02153170
O        0.00006661       0.78814187      15.12809470      -0.00014655       0.04155057      -0.00350596
10
Lattice="3.940949890606662 0.0 0.0 0.0 3.940949890606662 0.0 0.0 0.0 26.940967945119528" Properties=species:S:1:pos:R:3:forces:R:3 tau=tau57 tau_p=5 tau_q=7 stage=B constraint=xy_fixed_z_free force_label=raw_dft energy=-15499.264970808481 free_energy=-15499.264970808481 stress="0.0110500268989254 0.0 -9.181576151994517e-07 0.0 0.011855251127455321 -0.0012587940904384481 -9.181576151994517e-07 -0.0012587940904384481 0.0004205161877613489" pbc="T T T"
Sr       0.00003612       0.00009431      10.10232014      -0.00012907      -0.00097368       0.18017340
Sr       1.97037695       2.75865092      15.50988220      -0.00018615       0.10361546      -0.02671428
Ti       1.97047269       1.97057450      11.57535282       0.00005965      -0.08273450      -0.07478671
Ti       3.94067571       0.78812580      16.95991408       0.00059367       0.00418241       0.00776345
O        0.00000902       1.97050521      11.68394359      -0.00003265       0.05189746       0.02877553
O        1.97066294       0.78819359      17.09333385      -0.00051936      -0.00663165       0.03347833
O        1.97049401       3.94093312      11.74878630      -0.00003445      -0.09725043      -0.12319312
O        0.00009646       2.75866935      17.10181064       0.00024066      -0.00181494       0.00381603
O        1.97043419       1.97038596       9.75438979       0.00015864      -0.00891916      -0.02611598
O        0.00006661       0.78814187      15.14558655      -0.00015041       0.03862903      -0.00319717
10
Lattice="3.940949890606662 0.0 0.0 0.0 3.940949890606662 0.0 0.0 0.0 26.940967945119528" Properties=species:S:1:pos:R:3:forces:R:3 tau=tau57 tau_p=5 tau_q=7 stage=B constraint=xy_fixed_z_free force_label=raw_dft energy=-15499.26798025148 free_energy=-15499.26798025148 stress="0.01116846923128613 0.0 -9.181576151994517e-07 0.0 0.011087671361148578 -0.001162387540842506 -9.181576151994517e-07 -0.001162387540842506 0.0002681020236382399" pbc="T T T"
Sr       0.00003612       0.00009431      10.08571463      -0.00012933      -0.00075565       0.13392105
Sr       1.97037695       2.75865092      15.53382665      -0.00018178       0.09399233      -0.05051806
Ti       1.97047269       1.97057450      11.55149260       0.00005296      -0.07801884      -0.05164189
Ti       3.94067571       0.78812580      16.98092446       0.00059572       0.00382143       0.01801366
O        0.00000902       1.97050521      11.67816393      -0.00002571       0.04995859      -0.02452395
O        1.97066294       0.78819359      17.11793302      -0.00051268      -0.00579167       0.02208758
O        1.97049401       3.94093312      11.70713580      -0.00002982      -0.08735914      -0.03905994
O        0.00009646       2.75866935      17.12101802       0.00023500      -0.00157429       0.01543819
O        1.97043419       1.97038596       9.73219489       0.00015349      -0.00861371      -0.02392334
O        0.00006661       0.78814187      15.16691598      -0.00015812       0.03434094       0.00020672
10
Lattice="3.940949890606662 0.0 0.0 0.0 3.940949890606662 0.0 0.0 0.0 26.940967945119528" Properties=species:S:1:pos:R:3:forces:R:3 tau=tau57 tau_p=5 tau_q=7 stage=B constraint=xy_fixed_z_free force_label=raw_dft energy=-15499.268999317806 free_energy=-15499.268999317806 stress="0.011054617687001398 0.0 -9.181576151994517e-07 0.0 0.010680927537615223 -0.0011394336004625196 -9.181576151994517e-07 -0.0011394336004625196 0.00012303312043672652" pbc="T T T"
Sr       0.00003612       0.00009431      10.09012231      -0.00013524      -0.00059418       0.06359084
Sr       1.97037695       2.75865092      15.53606461      -0.00018306       0.09205372      -0.04242834
Ti       1.97047269       1.97057450      11.54545128       0.00005811      -0.07721383      -0.02703669
Ti       3.94067571       0.78812580      16.98426102       0.00059264       0.00373170       0.01814325
O        0.00000902       1.97050521      11.67866917      -0.00002494       0.05003135      -0.02869557
O        1.97066294       0.78819359      17.12271222      -0.00050419      -0.00563329       0.01120075
O        1.97049401       3.94093312      11.69631630      -0.00002777      -0.08537040       0.00088909
O        0.00009646       2.75866935      17.12380896       0.00023706      -0.00151926       0.01303986
O        1.97043419       1.97038596       9.72808150       0.00015015      -0.00863556      -0.01205282
O        0.00006661       0.78814187      15.16983260      -0.00016249       0.03315000       0.00334963
10
Lattice="3.940949890606662 0.0 0.0 0.0 3.940949890606662 0.0 0.0 0.0 26.940967945119528" Properties=species:S:1:pos:R:3:forces:R:3 tau=tau57 tau_p=5 tau_q=7 stage=B constraint=xy_fixed_z_free force_label=raw_dft energy=-15499.269381773805 free_energy=-15499.269381773805 stress="0.01090312168049349 0.0 -9.181576151994517e-07 0.0 0.0105477946834113 -0.001140351758077719 -9.181576151994517e-07 -0.001140351758077719 4.958051122077039e-05" pbc="T T T"
Sr       0.00003612       0.00009431      10.09717636      -0.00013833      -0.00050959       0.00800462
Sr       1.97037695       2.75865092      15.53276268      -0.00018435       0.09235942      -0.02214903
Ti       1.97047269       1.97057450      11.54422557       0.00005965      -0.07726833      -0.00632748
Ti       3.94067571       0.78812580      16.98388960       0.00057387       0.00375818       0.01059500
O        0.00000902       1.97050521      11.67775618      -0.00002443       0.05019668      -0.01299718
O        1.97066294       0.78819359      17.12244374      -0.00049365      -0.00565206       0.00315243
O        1.97049401       3.94093312      11.69660424      -0.00002571      -0.08578511       0.01088348
O        0.00009646       2.75866935      17.12342935       0.00024400      -0.00152595       0.00546565
O        1.97043419       1.97038596       9.72834473       0.00015015      -0.00866976      -0.00227543
O        0.00006661       0.78814187      15.16868753      -0.00016147       0.03309678       0.00564820
