10
Lattice="3.940949890606662 0.0 0.0 0.0 3.940949890606662 0.0 0.0 0.0 26.940967945119528" Properties=species:S:1:pos:R:3:forces:R:3 tau=tau28 tau_p=2 tau_q=8 stage=B constraint=xy_fixed_z_free force_label=raw_dft energy=-15499.052275611579 free_energy=-15499.052275611579 stress="0.010980246920170243 -0.0016471747616678164 0.010559730732408894 -0.0016471747616678164 0.01066623701577203 -0.010550549156256899 0.010559730732408894 -0.010550549156256899 -0.009463450539860748" pbc="T T T"
Sr       0.00003626       0.00009419      10.75260867       0.00027382      -0.00033836       0.29680018
Sr       0.78809185       3.15274573      14.64522241      -0.86113752       0.86014071       2.35323456
Ti       1.97047258       1.97057465      12.38212169       0.88852003      -0.88846424      -1.36801252
Ti       2.75839063       1.18222073      16.28444791      -0.09428647       0.09221467      -0.10969843
O        0.00000906       1.97050529      12.45001441       1.23106348       0.52322052      -0.83309553
O        0.78837796       1.18228851      16.39256827       0.00272640      -0.00725051      -0.08632762
O        1.97049386       3.94093294      12.44909065      -0.52364450      -1.22774804      -0.82772321
O        2.75876148       3.15276425      16.37955485       0.00833577      -0.00000797      -0.04865376
O        1.97043435       1.97038588      10.49176941       0.21388184      -0.21319227       0.25194240
O        2.75873153       1.18223689      14.44792112      -0.86573311       0.86142549       0.37153392
10
Lattice="3.940949890606662 0.0 0.0 0.0 3.940949890606662 0.0 0.0 0.0 26.940967945119528" Properties=species:S:1:pos:R:3:forces:R:3 tau=tau28 tau_p=2 tau_q=8 stage=B constraint=xy_fixed_z_free force_label=raw_dft energy=-15499.213137203926 free_energy=-15499.213137203926 stress="0.009536903149076705 -0.001548931896841475 0.009637900486748644 -0.001548931896841475 0.009256865076440872 -0.00962871891059665 0.009637900486748644 -0.00962871891059665 -0.010570748623791287" pbc="T T T"
Sr       0.00003612       0.00009431      10.75871737       0.00084024      -0.00093562       0.30124716
Sr       0.78809198       3.15274591      14.69365631      -0.72799552       0.72695679       1.75711658
Ti       1.97047269       1.97057450      12.35396591       0.76881435      -0.76866034      -0.75644580
Ti       2.75839074       1.18222079      16.28219013      -0.08860304       0.08703621      -0.05027792
O        0.00000902       1.97050521      12.43286793       1.16861138       0.52980615      -0.71894421
O        0.78837796       1.18228858      16.39079156       0.00457991      -0.00750711      -0.00519646
O        1.97049401       3.94093312      12.43205467      -0.53008022      -1.16570783      -0.71440261
O        2.75876140       3.15276434      16.37855343       0.00846304      -0.00243226       0.03469729
O        1.97043419       1.97038596      10.49695479       0.20502722      -0.20442198      -0.18643995
O        2.75873155       1.18223686      14.45556786      -0.80965735       0.80586601       0.33864643
10
Lattice="3.940949890606662 0.0 0.0 0.0 3.940949890606662 0.0 0.0 0.0 26.940967945119528" Properties=species:S:1:pos:R:3:forces:R:3 tau=tau28 tau_p=2 tau_q=8 stage=B constraint=xy_fixed_z_free force_label=raw_dft energy=-15499.337766566543 free_energy=-15499.337766566543 stress="0.007802503413964941 -0.0014332440373263442 0.008761059964233169 -0.0014332440373263442 0.0075683732220890795 -0.008752796545696372 0.008761059964233169 -0.008752796545696372 -0.011296093139798853" pbc="T T T"
Sr       0.00003612       0.00009431      10.76758143       0.00009333      -0.00020903       0.19593092
Sr       0.78809198       3.15274591      14.74693328      -0.61371281       0.61274479       1.14631452
Ti       1.97047269       1.97057450      12.33013152       0.67121039      -0.67096202      -0.42610173
Ti       2.75839074       1.18222079      16.28055844      -0.08141578       0.08037294       0.05249498
O        0.00000902       1.97050521      12.41139750       1.09541979       0.52422737      -0.53555693
O        0.78837796       1.18228858      16.39043310       0.00627992      -0.00783364       0.09193159
O        1.97049401       3.94093312      12.41072015      -0.52442303      -1.09304409      -0.53195533
O        2.75876140       3.15276434      16.37936469       0.00859571      -0.00476091       0.13237556
O        1.97043419       1.97038596      10.49257158       0.19272732      -0.19217711      -0.39699658
O        2.75873155       1.18223686      14.46562827      -0.75477433       0.75164195       0.27156300
10
Lattice="3.940949890606662 0.0 0.0 0.0 3.940949890606662 0.0 0.0 0.0 26.940967945119528" Properties=species:S:1:pos:R:3:forces:R:3 tau=tau28 tau_p=2 tau_q=8 stage=B constraint=xy_fixed_z_free force_label=raw_dft energy=-15499.446910202716 free_energy=-15499.446910202716 stress="0.004924079290314659 -0.0012808298732032352 0.00760142689623626 -0.0012808298732032352 0.0047634017076547555 -0.007594999792929864 0.00760142689623626 -0.007594999792929864 -0.01193880347043847" pbc="T T T"
Sr       0.00003612       0.00009431      10.78060548      -0.00225126       0.00208234      -0.05898676
Sr       0.78809198       3.15274591      14.82684873      -0.47877309       0.47799482       0.29975669
Ti       1.97047269       1.97057450      12.29652705       0.55752521      -0.55732261      -0.20647552
Ti       2.75839074       1.18222079      16.28176597      -0.07096245       0.07071588       0.20082244
O        0.00000902       1.97050521      12.37656380       0.98108103       0.49701070      -0.24836908
O        0.78837796       1.18228858      16.39390632       0.00839234      -0.00808432       0.25490534
O        1.97049401       3.94093312      12.37611678      -0.49713797      -0.97955302      -0.24610497
O        2.75876140       3.15276434      16.38519054       0.00856357      -0.00770405       0.29180298
O        1.97043419       1.97038596      10.47503755       0.17171395      -0.17121207      -0.46273301
O        2.75873155       1.18223686      14.48275773      -0.67815134       0.67607235       0.17538189
10
Lattice="3.940949890606662 0.0 0.0 0.0 3.940949890606662 0.0 0.0 0.0 26.940967945119528" Properties=species:S:1:pos:R:3:forces:R:3 tau=tau28 tau_p=2 tau_q=8 stage=B constraint=xy_fixed_z_free force_label=raw_dft energy=-15499.481541586732 free_energy=-15499.481541586732 stress="0.0031318356254453296 -0.0011862596388376916 0.00689995447822388 -0.0011862596388376916 0.0030253293420821935 -0.006895363690147882 0.00689995447822388 -0.006895363690147882 -0.011752417474552981" pbc="T T T"
Sr       0.00003612       0.00009431      10.78520283      -0.00408214       0.00387414      -0.26836481
Sr       0.78809198       3.15274591      14.87890375      -0.40540203       0.40482688      -0.18607973
Ti       1.97047269       1.97057450      12.27055013       0.49615195      -0.49598328      -0.16324320
Ti       2.75839074       1.18222079      16.28841749      -0.06522195       0.06546363       0.27940744
O        0.00000902       1.97050521      12.35073303       0.90083176       0.46796212      -0.07550430
O        0.78837796       1.18228858      16.40339735       0.00948377      -0.00799047       0.34899512
O        1.97049401       3.94093312      12.35047662      -0.46810275      -0.89994267      -0.07428663
O        2.75876140       3.15276434      16.39701214       0.00825504      -0.00932385       0.37810926
O        1.97043419       1.97038596      10.45355501       0.15539670      -0.15491822      -0.37045766
O        2.75873155       1.18223686      14.49707163      -0.62731060       0.62603148       0.13142477
10
Lattice="3.940949890606662 0.0 0.0 0.0 3.940949890606662 0.0 0.0 0.0 26.940967945119528" Properties=species:S:1:pos:R:3:forces:R:3 tau=tau28 tau_p=2 tau_q=8 stage=B constraint=xy_fixed_z_free force_label=raw_dft energy=-15499.502679525775 free_energy=-15499.502679525775 stress="0.0027122375952991803 -0.001123824921004129 0.0065299369592985 -0.001123824921004129 0.0026415394589288225 -0.006526264328837703 0.0065299369592985 -0.006526264328837703 -0.010905876153339086" pbc="T T T"
Sr       0.00003612       0.00009431      10.78058003      -0.00503679       0.00481568      -0.36812695
Sr       0.78809198       3.15274591      14.90419520      -0.36946392       0.36903378      -0.35656007
Ti       1.97047269       1.97057450      12.25044096       0.46685731      -0.46675318      -0.13737636
Ti       2.75839074       1.18222079      16.29914348      -0.06328976       0.06376387       0.29831019
O        0.00000902       1.97050521      12.33421507       0.85207927       0.44654174      -0.01433724
O        0.78837796       1.18228858      16.41751823       0.00987252      -0.00777193       0.35701336
O        1.97049401       3.94093312      12.33409644      -0.44669678      -0.85162136      -0.01384925
O        2.75876140       3.15276434      16.41314846       0.00792568      -0.00999851       0.37731762
O        1.97043419       1.97038596      10.43343405       0.14415327      -0.14367170      -0.26926084
O        2.75873155       1.18223686      14.50854803      -0.59640055       0.59566135       0.12686929
10
Lattice="3.940949890606662 0.0 0.0 0.0 3.940949890606662 0.0 0.0 0.0 26.940967945119528" Properties=species:S:1:pos:R:3:forces:R:3 tau=tau28 tau_p=2 tau_q=8 stage=B constraint=xy_fixed_z_free force_label=raw_dft energy=-15499.532371499394 free_energy=-15499.532371499394 stress="0.0029344317381774475 -0.0010439452084817764 0.006154410494681925 -0.0010439452084817764 0.002908723324951863 -0.006153492337066726 0.006154410494681925 -0.006153492337066726 -0.009364289517419208" pbc="T T T"
Sr       0.00003612       0.00009431      10.76756117      -0.00578344       0.00555693      -0.43861529
Sr       0.78809198       3.15274591      14.92679885      -0.33565032       0.33535953      -0.43239116
Ti       1.97047269       1.97057450      12.22403329       0.43938482      -0.43935576      -0.09241239
Ti       2.75839074       1.18222079      16.31746106      -0.06243615       0.06308124       0.29930803
O        0.00000902       1.97050521      12.31466903       0.79714174       0.42018305       0.01450616
O        0.78837796       1.18228858      16.44079641       0.01008798      -0.00751533       0.32002752
O        1.97049401       3.94093312      12.31471732      -0.42036071      -0.79715588       0.01411279
O        2.75876140       3.15276434      16.43911453       0.00758810      -0.01049910       0.32783828
O        1.97043419       1.97038596      10.40561345       0.13093189      -0.13047346      -0.14713241
O        2.75873155       1.18223686      14.52455485      -0.56090390       0.56081853       0.13475820
10
Lattice="3.940949890606662 0.0 0.0 0.0 3.940949890606662 0.0 0.0 0.0 26.940967945119528" Properties=species:S:1:pos:R:3:forces:R:3 tau=tau28 tau_p=2 tau_q=8 stage=B constraint=xy_fixed_z_free force_label=raw_dft energy=-15499.573020680955 free_energy=-15499.573020680955 stress="0.003899415391752071 -0.0009291755065818451 0.005708185893694991 -0.0009291755065818451 0.003937978011590448 -0.00571002220892539 0.005708185893694991 -0.00571002220892539 -0.00691648131529747" pbc="T T T"
Sr       0.00003612       0.00009431      10.74090986      -0.00643984       0.00621050      -0.46982128
Sr       0.78809198       3.15274591      14.95048041      -0.29930700       0.29917485      -0.41495805
Ti       1.97047269       1.97057450      12.18603345       0.40898898      -0.40906406      -0.01485018
Ti       2.75839074       1.18222079      16.34862646      -0.06197053       0.06279045       0.27163653
O        0.00000902       1.97050521      12.28753001       0.72571264       0.38441206       0.01301904
O        0.78837796       1.18228858      16.47873448       0.00993089      -0.00714510       0.23058065
O        1.97049401       3.94093312      12.28779682      -0.38462572      -0.72629242       0.01150389
O        2.75876140       3.15276434      16.48084543       0.00714947      -0.01065234       0.22085339
O        1.97043419       1.97038596      10.36473398       0.11394461      -0.11350058      -0.00019463
O        2.75873155       1.18223686      14.54962908      -0.51338348       0.51406637       0.15223039
10
Lattice="3.940949890606662 0.0 0.0 0.0 3.940949890606662 0.0 0.0 0.0 26.940967945119528" Properties=species:S:1:pos:R:3:forces:R:3 tau=tau28 tau_p=2 tau_q=8 stage=B constraint=xy_fixed_z_free force_label=raw_dft energy=-15499.61640732773 free_energy=-15499.61640732773 stress="0.005939561612725254 -0.000768497923921941 0.005187590525876902 -0.000768497923921941 0.00607912157023557 -0.0051912631563376995 0.005187590525876902 -0.0051912631563376995 -0.0033870834424707774" pbc="T T T"
Sr       0.00003612       0.00009431      10.69285757      -0.00641902       0.00620484      -0.42720422
Sr       0.78809198       3.15274591      14.97472999      -0.26252223       0.26254203      -0.26166117
Ti       1.97047269       1.97057450      12.13383842       0.37377489      -0.37398624       0.07555032
Ti       2.75839074       1.18222079      16.39846187      -0.06093977       0.06183117       0.21509849
O        0.00000902       1.97050521      12.24941618       0.63577236       0.33833429      -0.02578688
O        0.78837796       1.18228858      16.53637732       0.00926368      -0.00688310       0.08099309
O        1.97049401       3.94093312      12.24994451      -0.33857855      -0.63690673      -0.02853359
O        2.75876140       3.15276434      16.54344177       0.00686202      -0.01027798       0.05006066
O        1.97043419       1.97038596      10.30767353       0.09407049      -0.09362981       0.15155265
O        2.75873155       1.18223686      14.58857882      -0.45128388       0.45277152       0.16993115
10
Lattice="3.940949890606662 0.0 0.0 0.0 3.940949890606662 0.0 0.0 0.0 26.940967945119528" Properties=species:S:1:pos:R:3:forces:R:3 tau=tau28 tau_p=2 tau_q=8 stage=B constraint=xy_fixed_z_free force_label=raw_dft energy=-15499.63877413287 free_energy=-15499.63877413287 stress="0.008176193563351117 -0.0006234290207204278 0.0047891101208803405 -0.0006234290207204278 0.00840573296715098 -0.0047946190665715364 0.0047891101208803405 -0.0047946190665715364 -0.0004159253996853516" pbc="T T T"
Sr       0.00003612       0.00009431      10.63806967      -0.00560475       0.00539983      -0.29776023
Sr       0.78809198       3.15274591      14.99134310      -0.23885086       0.23895858      -0.05177765
Ti       1.97047269       1.97057450      12.08875765       0.34697911      -0.34720923       0.13778593
Ti       2.75839074       1.18222079      16.45002167      -0.05990208       0.06074000       0.12392717
O        0.00000902       1.97050521      12.21309897       0.56114661       0.29988267      -0.07087040
O        0.78837796       1.18228858      16.59097397       0.00841316      -0.00675917      -0.04225557
O        1.97049401       3.94093312      12.21379113      -0.30014287      -0.56255120      -0.07424420
O        2.75876140       3.15276434      16.60172222       0.00671366      -0.00956425      -0.08658318
O        1.97043419       1.97038596      10.25844709       0.07958927      -0.07915475       0.20514781
O        2.75873155       1.18223686      14.62909448      -0.39834127       0.40025751       0.15663006
10
Lattice="3.940949890606662 0.0 0.0 0.0 3.940949890606662 0.0 0.0 0.0 26.940967945119528" Properties=species:S:1:pos:R:3:forces:R:3 tau=tau28 tau_p=2 tau_q=8 stage=B constraint=xy_fixed_z_free force_label=raw_dft energy=-15499.644833427774 free_energy=-15499.644833427774 stress="0.009121895907006553 -0.0005646669333476628 0.004685358310362802 -0.0005646669333476628 0.009363371359804008 -0.004690867256053999 0.004685358310362802 -0.004690867256053999 0.00042327066060694724" pbc="T T T"
Sr       0.00003612       0.00009431      10.61160854      -0.00462002       0.00442358      -0.18980706
Sr       0.78809198       3.15274591      14.99562222      -0.23454323       0.23462988       0.04176731
Ti       1.97047269       1.97057450      12.07640031       0.34143299      -0.34167776       0.12220916
Ti       2.75839074       1.18222079      16.47146788      -0.05979126       0.06057956       0.06061016
O        0.00000902       1.97050521      12.19853361       0.53458865       0.28643529      -0.06783187
O        0.78837796       1.18228858      16.60965939       0.00802878      -0.00676612      -0.06081379
O        1.97049401       3.94093312      12.19920342      -0.28667595      -0.53592948      -0.07102030
O        2.75876140       3.15276434      16.62067843       0.00674092      -0.00914927      -0.10504448
O        1.97043419       1.97038596      10.24497322       0.07572722      -0.07530041       0.15796704
O        2.75873155       1.18223686      14.64717293      -0.38088811       0.38275473       0.11196409
10
Lattice="3.940949890606662 0.0 0.0 0.0 3.940949890606662 0.0 0.0 0.0 26.940967945119528" Properties=species:S:1:pos:R:3:forces:R:3 tau=tau28 tau_p=2 tau_q=8 stage=B constraint=xy_fixed_z_free force_label=raw_dft energy=-15499.648691049606 free_energy=-15499.648691049606 stress="0.009703089677427806 -0.000522431683048488 0.004652304636215622 -0.000522431683048488 0.009916102244154078 -0.0046568954242916195 0.004652304636215622 -0.0046568954242916195 0.0006243471783356271" pbc="T T T"
Sr       0.00003612       0.00009431      10.58997181      -0.00351984       0.00333035      -0.06794500
Sr       0.78809198       3.15274591      14.99865343      -0.23468438       0.23472552       0.09206298
Ti       1.97047269       1.97057450      12.07361126       0.34145098      -0.34167801       0.06507796
Ti       2.75839074       1.18222079      16.48593633      -0.05984397       0.06053225      -0.00091763
O        0.00000902       1.97050521      12.18818465       0.51707173       0.27785372      -0.03666059
O        0.78837796       1.18228858      16.61870181       0.00769403      -0.00695638      -0.03916150
O        1.97049401       3.94093312      12.18873464      -0.27806275      -0.51820147      -0.03919261
O        2.75876140       3.15276434      16.62840963       0.00698029      -0.00870138      -0.07755784
O        1.97043419       1.97038596      10.24197882       0.07434191      -0.07391716       0.06339389
O        2.75873155       1.18223686      14.66113758      -0.37142825       0.37301256       0.04090034
10
Lattice="3.940949890606662 0.0 0.0 0.0 3.940949890606662 0.0 0.0 0.0 26.940967945119528" Properties=species:S:1:pos:R:3:forces:R:3 tau=tau28 tau_p=2 tau_q=8 stage=B constraint=xy_fixed_z_free force_label=raw_dft energy=-15499.649801682239 free_energy=-15499.649801682239 stress="0.009691153628430213 -0.0005132501068964935 0.004663322527598015 -0.0005132501068964935 0.009864685417702908 -0.004666077000443613 0.004663322527598015 -0.004666077000443613 0.00036450857323418233" pbc="T T T"
Sr       0.00003612       0.00009431      10.58406700      -0.00300125       0.00281690      -0.01548087
Sr       0.78809198       3.15274591      15.00115457      -0.23595528       0.23593548       0.07310006
Ti       1.97047269       1.97057450      12.07711205       0.34337391      -0.34356417       0.02073363
Ti       2.75839074       1.18222079      16.48766406      -0.05965448       0.06028800      -0.02157644
O        0.00000902       1.97050521      12.18590788       0.51320813       0.27618970      -0.00739038
O        0.78837796       1.18228858      16.61733384       0.00764286      -0.00708313      -0.00753487
O        1.97049401       3.94093312      12.18633892      -0.27637456      -0.51413656      -0.00935342
O        2.75876140       3.15276434      16.62532966       0.00714227      -0.00853915      -0.03932425
O        1.97043419       1.97038596      10.24587747       0.07479493      -0.07437302       0.00479896
O        2.75873155       1.18223686      14.66453453      -0.37117654       0.37246569       0.00202757
10
Lattice="3.940949890606662 0.0 0.0 0.0 3.940949890606662 0.0 0.0 0.0 26.940967945119528" Properties=species:S:1:pos:R:3:forces:R:3 tau=tau28 tau_p=2 tau_q=8 stage=B constraint=xy_fixed_z_free force_label=raw_dft energy=-15499.650105905512 free_energy=-15499.650105905512 stress="0.009524967100079112 -0.0005169227373572913 0.0046688314732892125 -0.0005169227373572913 0.009666363372819828 -0.004670667788519611 0.0046688314732892125 -0.004670667788519611 0.00012303312043672652" pbc="T T T"
Sr       0.00003612       0.00009431      10.58424603      -0.00284261       0.00265698      -0.00487404
Sr       0.78809198       3.15274591      15.00381949      -0.23602084       0.23595117       0.03663591
Ti       1.97047269       1.97057450      12.07989967       0.34393853      -0.34410411      -0.00076387
Ti       2.75839074       1.18222079      16.48558071      -0.05933335       0.05993859      -0.01723179
O        0.00000902       1.97050521      12.18620466       0.51322947       0.27634474       0.00760532
O        0.78837796       1.18228858      16.61471002       0.00771897      -0.00710730       0.01154528
O        1.97049401       3.94093312      12.18654814      -0.27651520      -0.51400132       0.00603464
O        2.75876140       3.15276434      16.62128743       0.00719446      -0.00852321      -0.01486252
O        1.97043419       1.97038596      10.24891785       0.07523639      -0.07481139      -0.01423208
O        2.75873155       1.18223686      14.66410597      -0.37260581       0.37365611      -0.00985735
10
Lattice="3.940949890606662 0.0 0.0 0.0 3.940949890606662 0.0 0.0 0.0 26.940967945119528" Properties=species:S:1:pos:R:3:forces:R:3 tau=tau28 tau_p=2 tau_q=8 stage=B constraint=xy_fixed_z_free force_label=raw_dft energy=-15499.650186995434 free_energy=-15499.650186995434 stress="0.009440496599480762 -0.0005187590525876902 0.004657813581906818 -0.0005187590525876902 0.00956077524707189 -0.004659649897137217 0.004657813581906818 -0.004659649897137217 6.151656021836326e-05" pbc="T T T"
Sr       0.00003612       0.00009431      10.58437314      -0.00281433       0.00262895      -0.00581584
Sr       0.78809198       3.15274591      15.00621003      -0.23495101       0.23484585       0.01354560
Ti       1.97047269       1.97057450      12.07999926       0.34290700      -0.34305844      -0.00479151
Ti       2.75839074       1.18222079      16.48466044      -0.05908241       0.05965396      -0.00876566
O        0.00000902       1.97050521      12.18612925       0.51252653       0.27597579       0.00965938
O        0.78837796       1.18228858      16.61452841       0.00779918      -0.00707696       0.01535643
O        1.97049401       3.94093312      12.18641647      -0.27613777      -0.51319219       0.00833886
O        2.75876140       3.15276434      16.62014888       0.00718572      -0.00853143      -0.00733793
O        1.97043419       1.97038596      10.24896981       0.07510295      -0.07467152      -0.01237601
O        2.75873155       1.18223686      14.66388428      -0.37253588       0.37342599      -0.00781333
