10
Lattice="3.940949890606662 0.0 0.0 0.0 3.940949890606662 0.0 0.0 0.0 26.940967945119528" Properties=species:S:1:pos:R:3:forces:R:3 tau=tau15 tau_p=1 tau_q=5 stage=A constraint=rigid_scf force_label=raw_dft energy=-15497.11313226016 free_energy=-15497.11313226016 stress="0.004623841750144439 -0.0 -0.0007088176789339768 -0.0 0.022061491178012427 1.8363152303989035e-06 -0.0007088176789339768 1.8363152303989035e-06 -0.03505342143308467" pbc="T T T"
Sr       0.00003626       0.00009419      10.75260867      -0.00936499      -0.00007893       0.35724810
Sr       0.39399686       1.97046076      14.64522241      -0.60796794      -0.00021417       5.12587622
Ti       1.97047258       1.97057465      12.38212169       0.95132565       0.00090271      -3.06962104
Ti       2.36429564       3.94088565      16.28444791       0.05780148       0.00006813       0.20721317
O        0.00000906       1.97050529      12.45001441      -0.20374784      -0.00017098      -1.55813274
O        0.39428297       0.00000355      16.39256827       0.00316091       0.00000540      -0.09067124
O        1.97049386       3.94093294      12.44909065      -0.92480292      -0.00060987      -3.65418937
O        2.36466649       1.97047928      16.37955485       0.10230240      -0.00007688      -0.28490908
O        1.97043435       1.97038588      10.49176941       0.05624597       0.00019618       0.34379326
O        2.36463654       3.94090181      14.44792112       0.57504676      -0.00002134       2.62339246
