10
Lattice="3.940949890606662 0.0 0.0 0.0 3.940949890606662 0.0 0.0 0.0 26.940967945119528" Properties=species:S:1:pos:R:3:forces:R:3 tau=tau38 tau_p=3 tau_q=8 stage=B constraint=xy_fixed_z_free force_label=raw_dft energy=-15498.233462893786 free_energy=-15498.233462893786 stress="0.014813554963627953 -0.0019070133667692612 0.012771572427424372 -0.0019070133667692612 0.009290836908203252 -0.006839356075620716 0.012771572427424372 -0.006839356075620716 -0.01570967679606262" pbc="T T T"
Sr       0.00003626       0.00009419      10.75260867       0.00626578       0.00353090       0.40441293
Sr       1.18218684       3.15274573      14.64522241      -1.04607158       1.03021970       3.41110596
Ti       1.97047258       1.97057465      12.38212169       0.88900340      -1.21081013      -2.46134688
Ti       3.15248562       1.18222073      16.28444791      -0.12383975       0.04528227      -0.18964920
O        0.00000906       1.97050529      12.45001441       1.45935481       0.83278623      -1.45029090
O        1.18247295       1.18228851      16.39256827       0.01638718      -0.07790237      -0.16337458
O        1.97049386       3.94093294      12.44909065      -0.35574298      -0.66648933      -0.76748586
O        3.15285647       3.15276425      16.37955485       0.00415413      -0.00752459      -0.04753533
O        1.97043435       1.97038588      10.49176941       0.22290050      -0.14811740       0.32689648
O        3.15282651       1.18223689      14.44792112      -1.07241201       0.19902472       0.93726712
10
Lattice="3.940949890606662 0.0 0.0 0.0 3.940949890606662 0.0 0.0 0.0 26.940967945119528" Properties=species:S:1:pos:R:3:forces:R:3 tau=tau38 tau_p=3 tau_q=8 stage=B constraint=xy_fixed_z_free force_label=raw_dft energy=-15498.598235304098 free_energy=-15498.598235304098 stress="0.011946148731360066 -0.001711445794731778 0.01085170485404232 -0.001711445794731778 0.007550928227400291 -0.006032295531860398 0.01085170485404232 -0.006032295531860398 -0.01764607120651826" pbc="T T T"
Sr       0.00003612       0.00009431      10.76093223       0.00608349       0.00339514       0.43139769
Sr       1.18218697       3.15274591      14.71542912      -0.79436212       0.84255591       2.39589559
Ti       1.97047269       1.97057450      12.33146321       0.70884594      -0.93794409      -1.11484730
Ti       3.15248573       1.18222079      16.28054461      -0.10765749       0.04019714       0.08691383
O        0.00000902       1.97050521      12.42016498       1.28843996       0.75741640      -1.29581645
O        1.18247295       1.18228858      16.38920580       0.01791982      -0.07070894      -0.03685676
O        1.97049401       3.94093312      12.43329446      -0.39293398      -0.68686841      -0.63497609
O        3.15285639       3.15276434      16.37857645       0.00319614      -0.00814397       0.06950026
O        1.97043419       1.97038596      10.49849748       0.20383012      -0.14054678      -0.48341625
O        3.15282654       1.18223686      14.46721161      -0.93336238       0.20064786       0.58220548
10
Lattice="3.940949890606662 0.0 0.0 0.0 3.940949890606662 0.0 0.0 0.0 26.940967945119528" Properties=species:S:1:pos:R:3:forces:R:3 tau=tau38 tau_p=3 tau_q=8 stage=B constraint=xy_fixed_z_free force_label=raw_dft energy=-15498.851400767713 free_energy=-15498.851400767713 stress="0.008661898941791627 -0.0015011877008511037 0.009186166940070515 -0.0015011877008511037 0.005322559695311222 -0.005451101761439145 0.009186166940070515 -0.005451101761439145 -0.018325507841765856" pbc="T T T"
Sr       0.00003612       0.00009431      10.77411381       0.00311875       0.00568959       0.24669066
Sr       1.18218697       3.15274591      14.79265618      -0.60002709       0.70290464       1.38900737
Ti       1.97047269       1.97057450      12.29251283       0.58779763      -0.74335555      -0.41130631
Ti       3.15248573       1.18222079      16.28226499      -0.09246793       0.03505956       0.23603293
O        0.00000902       1.97050521      12.37975811       1.11837897       0.66929029      -0.98632762
O        1.18247295       1.18228858      16.38763522       0.01763931      -0.06284367       0.15525041
O        1.97049401       3.94093312      12.41329829      -0.41344984      -0.68855300      -0.41453999
O        3.15285639       3.15276434      16.38031132       0.00250785      -0.00793262       0.24543674
O        1.97043419       1.97038596      10.48641749       0.18214415      -0.12768484      -0.80375462
O        3.15282654       1.18223686      14.48635171      -0.80564181       0.21742560       0.34351044
10
Lattice="3.940949890606662 0.0 0.0 0.0 3.940949890606662 0.0 0.0 0.0 26.940967945119528" Properties=species:S:1:pos:R:3:forces:R:3 tau=tau38 tau_p=3 tau_q=8 stage=B constraint=xy_fixed_z_free force_label=raw_dft energy=-15499.048356083846 free_energy=-15499.048356083846 stress="0.0033274031974828127 -0.0012395127805192598 0.007141429931021336 -0.0012395127805192598 0.00132306512350241 -0.004781764859958745 0.007141429931021336 -0.004781764859958745 -0.017824193783866956" pbc="T T T"
Sr       0.00003612       0.00009431      10.79303767      -0.00297682       0.00988358      -0.24156800
Sr       1.18218697       3.15274591      14.90849678      -0.39593060       0.54413747       0.03746817
Ti       1.97047269       1.97057450      12.24234431       0.46823362      -0.54371144      -0.15664395
Ti       3.15248573       1.18222079      16.29260309      -0.07295300       0.02983971       0.34929182
O        0.00000902       1.97050521      12.30931696       0.88320273       0.53404281      -0.41608420
O        1.18247295       1.18228858      16.39327303       0.01616273      -0.05123489       0.48701553
O        1.97049401       3.94093312      12.38155506      -0.40978216      -0.65566010      -0.09479272
O        3.15285639       3.15276434      16.39214053       0.00162879      -0.00790948       0.54053382
O        1.97043419       1.97038596      10.44685274       0.14954024      -0.10430760      -0.63758885
O        3.15282654       1.18223686      14.51569978      -0.63712579       0.24491994       0.13236810
10
Lattice="3.940949890606662 0.0 0.0 0.0 3.940949890606662 0.0 0.0 0.0 26.940967945119528" Properties=species:S:1:pos:R:3:forces:R:3 tau=tau38 tau_p=3 tau_q=8 stage=B constraint=xy_fixed_z_free force_label=raw_dft energy=-15499.095160344381 free_energy=-15499.095160344381 stress="0.0018014252410213242 -0.001140351758077719 0.006432612252087359 -0.001140351758077719 0.00030482832824621796 -0.004568752293232472 0.006432612252087359 -0.004568752293232472 -0.016551627329200517" pbc="T T T"
Sr       0.00003612       0.00009431      10.79260794      -0.00530290       0.01124498      -0.45443297
Sr       1.18218697       3.15274591      14.94989368      -0.33586475       0.49190217      -0.34624506
Ti       1.97047269       1.97057450      12.21782305       0.43324888      -0.48353657      -0.19297672
Ti       3.15248573       1.18222079      16.30437444      -0.06711453       0.02926867       0.36380801
O        0.00000902       1.97050521      12.27515476       0.79168586       0.47736310      -0.18944197
O        1.18247295       1.18228858      16.40760463       0.01518879      -0.04638322       0.55702384
O        1.97049401       3.94093312      12.36834068      -0.39926995      -0.63450815      -0.02365415
O        3.15285639       3.15276434      16.40990056       0.00109966      -0.00824656       0.58874509
O        1.97043419       1.97038596      10.41988098       0.13617359      -0.09357479      -0.42360519
O        3.15282654       1.18223686      14.52973923      -0.56984465       0.25647011       0.12077911
10
Lattice="3.940949890606662 0.0 0.0 0.0 3.940949890606662 0.0 0.0 0.0 26.940967945119528" Properties=species:S:1:pos:R:3:forces:R:3 tau=tau38 tau_p=3 tau_q=8 stage=B constraint=xy_fixed_z_free force_label=raw_dft energy=-15499.157128964915 free_energy=-15499.157128964915 stress="0.00112198860577373 -0.0010127278495649951 0.00566135985531982 -0.0010127278495649951 0.0002681020236382399 -0.004345639992739005 0.00566135985531982 -0.004345639992739005 -0.01416625384491234" pbc="T T T"
Sr       0.00003612       0.00009431      10.77854071      -0.00762641       0.01230556      -0.64145424
Sr       1.18218697       3.15274591      14.99067585      -0.27755984       0.43735827      -0.58927808
Ti       1.97047269       1.97057450      12.18041388       0.39712719      -0.42201085      -0.17862354
Ti       3.15248573       1.18222079      16.32811251      -0.06099634       0.02933243       0.37259656
O        0.00000902       1.97050521      12.22961817       0.68527998       0.40948263       0.02708400
O        1.18247295       1.18228858      16.43994268       0.01365384      -0.04059412       0.53025095
O        1.97049401       3.94093312      12.35156449      -0.38109740      -0.60425141      -0.02483094
O        3.15285639       3.15276434      16.44710698       0.00041626      -0.00881168       0.53149227
O        1.97043419       1.97038596      10.37859671       0.11980852      -0.08004101      -0.18195954
O        3.15282654       1.18223686      14.55074797      -0.48900582       0.26723044       0.15472282
10
Lattice="3.940949890606662 0.0 0.0 0.0 3.940949890606662 0.0 0.0 0.0 26.940967945119528" Properties=species:S:1:pos:R:3:forces:R:3 tau=tau38 tau_p=3 tau_q=8 stage=B constraint=xy_fixed_z_free force_label=raw_dft energy=-15499.244198318325 free_energy=-15499.244198318325 stress="0.0018243791814013105 -0.0008346052722163016 0.00477350144142195 -0.0008346052722163016 0.0018840594263892748 -0.004083046914791962 0.00477350144142195 -0.004083046914791962 -0.010078616142044382" pbc="T T T"
Sr       0.00003612       0.00009431      10.73934646      -0.00942464       0.01226853      -0.76531148
Sr       1.18218697       3.15274591      15.03311910      -0.21831854       0.37836071      -0.62812487
Ti       1.97047269       1.97057450      12.12194073       0.35566456      -0.35592861      -0.10328121
Ti       3.15248573       1.18222079      16.37340529      -0.05569267       0.03044109       0.37284415
O        0.00000902       1.97050521      12.16483998       0.55778206       0.32711734       0.21961155
O        1.18247295       1.18228858      16.50130589       0.01170803      -0.03349273       0.36674550
O        1.97049401       3.94093312      12.32589503      -0.35043802      -0.55742211      -0.12093081
O        3.15285639       3.15276434      16.51541187       0.00010696      -0.00931511       0.32734411
O        1.97043419       1.97038596      10.31398164       0.09924047      -0.06316455       0.08585916
O        3.15282654       1.18223686      14.58607397      -0.39062822       0.27113568       0.24524365
10
Lattice="3.940949890606662 0.0 0.0 0.0 3.940949890606662 0.0 0.0 0.0 26.940967945119528" Properties=species:S:1:pos:R:3:forces:R:3 tau=tau38 tau_p=3 tau_q=8 stage=B constraint=xy_fixed_z_free force_label=raw_dft energy=-15499.334144595292 free_energy=-15499.334144595292 stress="0.004467754955560532 -0.000616083759798832 0.003914105913595262 -0.000616083759798832 0.005768784296298156 -0.00378464568985214 0.003914105913595262 -0.00378464568985214 -0.004622923592529239" pbc="T T T"
Sr       0.00003612       0.00009431      10.66293293      -0.00936627       0.01037646      -0.71269077
Sr       1.18218697       3.15274591      15.06980269      -0.16934931       0.32428244      -0.37948506
Ti       1.97047269       1.97057450      12.04405564       0.31269577      -0.29356110       0.04896357
Ti       3.15248573       1.18222079      16.44673702      -0.05076720       0.03148213       0.35344595
O        0.00000902       1.97050521      12.08512102       0.43047157       0.24564474       0.30234116
O        1.18247295       1.18228858      16.59416998       0.00925289      -0.02667417       0.06966635
O        1.97049401       3.94093312      12.28683647      -0.30708279      -0.49311393      -0.31212190
O        3.15285639       3.15276434      16.61618640      -0.00000103      -0.00937373      -0.00823550
O        1.97043419       1.97038596      10.22830382       0.07742594      -0.04652797       0.28527727
O        3.15282654       1.18223686      14.64117399      -0.29327931       0.25746539       0.35283891
10
Lattice="3.940949890606662 0.0 0.0 0.0 3.940949890606662 0.0 0.0 0.0 26.940967945119528" Properties=species:S:1:pos:R:3:forces:R:3 tau=tau38 tau_p=3 tau_q=8 stage=B constraint=xy_fixed_z_free force_label=raw_dft energy=-15499.38032381034 free_energy=-15499.38032381034 stress="0.0071267394091781445 -0.00047836011751891435 0.0035606152317434734 -0.00047836011751891435 0.009131077483158547 -0.003627640737653034 0.0035606152317434734 -0.003627640737653034 -0.0014222261459439507" pbc="T T T"
Sr       0.00003612       0.00009431      10.59516526      -0.00760969       0.00778581      -0.50062232
Sr       1.18218697       3.15274591      15.08131562      -0.15377922       0.30210488      -0.08722673
Ti       1.97047269       1.97057450      11.99861254       0.29153173      -0.26745541       0.13578279
Ti       3.15248573       1.18222079      16.50423387      -0.04886227       0.03208711       0.26725589
O        0.00000902       1.97050521      12.04186455       0.37104310       0.20817271       0.25028661
O        1.18247295       1.18228858      16.65609307       0.00800693      -0.02346106      -0.09897307
O        1.97049401       3.94093312      12.25345586      -0.27702711      -0.44901283      -0.41187530
O        3.15285639       3.15276434      16.68113010       0.00048722      -0.00895901      -0.18477156
O        1.97043419       1.97038596      10.17821645       0.06652729      -0.03936950       0.27452337
O        3.15282654       1.18223686      14.68523264      -0.25031798       0.23810755       0.35562033
10
Lattice="3.940949890606662 0.0 0.0 0.0 3.940949890606662 0.0 0.0 0.0 26.940967945119528" Properties=species:S:1:pos:R:3:forces:R:3 tau=tau38 tau_p=3 tau_q=8 stage=B constraint=xy_fixed_z_free force_label=raw_dft energy=-15499.41054790257 free_energy=-15499.41054790257 stress="0.00951211289346632 -0.00037001751892537906 0.0034072829100051656 -0.00037001751892537906 0.01173956326794019 -0.003518379981444299 0.0034072829100051656 -0.003518379981444299 0.00045356986190852916" pbc="T T T"
Sr       0.00003612       0.00009431      10.53096132      -0.00519183       0.00522731      -0.21255618
Sr       1.18218697       3.15274591      15.08571504      -0.15055686       0.29043130       0.17181834
Ti       1.97047269       1.97057450      11.97078108       0.27791157      -0.25526118       0.13025209
Ti       3.15248573       1.18222079      16.55487658      -0.04780401       0.03183746       0.11760946
O        0.00000902       1.97050521      12.01694978       0.33665485       0.18714597       0.16664837
O        1.18247295       1.18228858      16.69993272       0.00699289      -0.02154250      -0.15374297
O        1.97049401       3.94093312      12.21708106      -0.25085097      -0.41041748      -0.41100010
O        3.15285639       3.15276434      16.72477230       0.00145602      -0.00822136      -0.23245832
O        1.97043419       1.97038596      10.14691360       0.05957452      -0.03603915       0.16042115
O        3.15282654       1.18223686      14.72733648      -0.22818618       0.21683990       0.26300843
10
Lattice="3.940949890606662 0.0 0.0 0.0 3.940949890606662 0.0 0.0 0.0 26.940967945119528" Properties=species:S:1:pos:R:3:forces:R:3 tau=tau38 tau_p=3 tau_q=8 stage=B constraint=xy_fixed_z_free force_label=raw_dft energy=-15499.42621036695 free_energy=-15499.42621036695 stress="0.01068184569523042 -0.00030758280109181635 0.0033659658173211897 -0.00030758280109181635 0.012621912736146863 -0.0034329913232307497 0.0033659658173211897 -0.0034329913232307497 0.000788697391456329" pbc="T T T"
Sr       0.00003612       0.00009431      10.49139339      -0.00354838       0.00349619      -0.00262844
Sr       1.18218697       3.15274591      15.09198925      -0.15216328       0.28281826       0.27636736
Ti       1.97047269       1.97057450      11.96062753       0.27061709      -0.25070236       0.05844940
Ti       3.15248573       1.18222079      16.58438802      -0.04762943       0.03119571       0.00167122
O        0.00000902       1.97050521      12.00957624       0.32159333       0.17875440       0.11762771
O        1.18247295       1.18228858      16.71827149       0.00636965      -0.02058579      -0.10938938
O        1.97049401       3.94093312      12.18647579      -0.23237682      -0.38229219      -0.33059270
O        3.15285639       3.15276434      16.74063321       0.00232376      -0.00762692      -0.17549373
O        1.97043419       1.97038596      10.13548310       0.05586673      -0.03540846       0.03502794
O        3.15282654       1.18223686      14.75648194      -0.22105291       0.20035090       0.12896062
10
Lattice="3.940949890606662 0.0 0.0 0.0 3.940949890606662 0.0 0.0 0.0 26.940967945119528" Properties=species:S:1:pos:R:3:forces:R:3 tau=tau38 tau_p=3 tau_q=8 stage=B constraint=xy_fixed_z_free force_label=raw_dft energy=-15499.436448786186 free_energy=-15499.436448786186 stress="0.010965556398327051 -0.00026902018125343936 0.003320976094176417 -0.00026902018125343936 0.012366664919121416 -0.0033182216213308185 0.003320976094176417 -0.0033182216213308185 0.000361754100388584" pbc="T T T"
Sr       0.00003612       0.00009431      10.46793517      -0.00260761       0.00238830       0.11781849
Sr       1.18218697       3.15274591      15.10643453      -0.15215557       0.27151801       0.25304849
Ti       1.97047269       1.97057450      11.95516169       0.26239419      -0.24474485      -0.02572389
Ti       3.15248573       1.18222079      16.60188146      -0.04677608       0.02963582      -0.06843608
O        0.00000902       1.97050521      12.00829879       0.31152874       0.17400969       0.09925332
O        1.18247295       1.18228858      16.72531002       0.00602204      -0.01960440      -0.02144249
O        1.97049401       3.94093312      12.15738336      -0.21621589      -0.35641712      -0.21807197
O        3.15285639       3.15276434      16.74413727       0.00312749      -0.00707259      -0.07440438
O        1.97043419       1.97038596      10.13033392       0.05274670      -0.03539715      -0.06346691
O        3.15282654       1.18223686      14.77844375      -0.21806426       0.18568430       0.00142542
10
Lattice="3.940949890606662 0.0 0.0 0.0 3.940949890606662 0.0 0.0 0.0 26.940967945119528" Properties=species:S:1:pos:R:3:forces:R:3 tau=tau38 tau_p=3 tau_q=8 stage=B constraint=xy_fixed_z_free force_label=raw_dft energy=-15499.443420614849 free_energy=-15499.443420614849 stress="0.01061573834693606 -0.0002451480832582536 0.0032245695445804745 -0.0002451480832582536 0.011460443352919555 -0.003155707723440515 0.0032245695445804745 -0.003155707723440515 -0.00029840122493982177" pbc="T T T"
Sr       0.00003612       0.00009431      10.45504119      -0.00229548       0.00185222       0.14420803
Sr       1.18218697       3.15274591      15.12955061      -0.14786851       0.25438675       0.13896016
Ti       1.97047269       1.97057450      11.94644512       0.25049461      -0.23410717      -0.08203567
Ti       3.15248573       1.18222079      16.61307794      -0.04464001       0.02760182      -0.08000810
O        0.00000902       1.97050521      12.00629874       0.30042723       0.16893922       0.09672464
O        1.18247295       1.18228858      16.73099608       0.00579861      -0.01827334       0.06194919
O        1.97049401       3.94093312      12.12930482      -0.20086821      -0.33099636      -0.11499670
O        3.15285639       3.15276434      16.74622445       0.00363168      -0.00655400       0.02049863
O        1.97043419       1.97038596      10.12278674       0.04915306      -0.03482919      -0.10538232
O        3.15282654       1.18223686      14.79559427      -0.21383274       0.17198006      -0.07991811
10
Lattice="3.940949890606662 0.0 0.0 0.0 3.940949890606662 0.0 0.0 0.0 26.940967945119528" Properties=species:S:1:pos:R:3:forces:R:3 tau=tau38 tau_p=3 tau_q=8 stage=B constraint=xy_fixed_z_free force_label=raw_dft energy=-15499.447953351117 free_energy=-15499.447953351117 stress="0.010145641647953941 -0.00022678493095426458 0.003077664326148562 -0.00022678493095426458 0.010580848357558481 -0.0029665672547094287 0.003077664326148562 -0.0029665672547094287 -0.0006243471783356271" pbc="T T T"
Sr       0.00003612       0.00009431      10.44542450      -0.00231888       0.00167739       0.10730242
Sr       1.18218697       3.15274591      15.15641346      -0.14013901       0.23414702       0.01041348
Ti       1.97047269       1.97057450      11.93063271       0.23560767      -0.21947168      -0.09153410
Ti       3.15248573       1.18222079      16.62403594      -0.04200077       0.02524463      -0.05333985
O        0.00000902       1.97050521      11.99966010       0.28649725       0.16200315       0.09130759
O        1.18247295       1.18228858      16.74290083       0.00568008      -0.01665921       0.10056227
O        1.97049401       3.94093312      12.10262318      -0.18633890      -0.30691027      -0.05057000
O        3.15285639       3.15276434      16.75521122       0.00385177      -0.00607397       0.06827976
O        1.97043419       1.97038596      10.10803657       0.04505833      -0.03327445      -0.08915146
O        3.15282654       1.18223686      14.81038146      -0.20589780       0.15931738      -0.09326985
10
Lattice="3.940949890606662 0.0 0.0 0.0 3.940949890606662 0.0 0.0 0.0 26.940967945119528" Properties=species:S:1:pos:R:3:forces:R:3 tau=tau38 tau_p=3 tau_q=8 stage=B constraint=xy_fixed_z_free force_label=raw_dft energy=-15499.450766055808 free_energy=-15499.450766055808 stress="0.009940892499764464 -0.00020933993626547502 0.002924332004410254 -0.00020933993626547502 0.010121769549958755 -0.0027921173078215324 0.002924332004410254 -0.0027921173078215324 -0.00045081538906293077" pbc="T T T"
Sr       0.00003612       0.00009431      10.43488474      -0.00243818       0.00164911       0.05348049
Sr       1.18218697       3.15274591      15.17996548      -0.13222772       0.21583074      -0.06584981
Ti       1.97047269       1.97057450      11.91027657       0.22110922      -0.20493749      -0.06448532
Ti       3.15248573       1.18222079      16.63698511      -0.03934893       0.02324637      -0.01549784
O        0.00000902       1.97050521      11.98968621       0.27221786       0.15441943       0.07241358
O        1.18247295       1.18228858      16.76136069       0.00553173      -0.01515434       0.08588384
O        1.97049401       3.94093312      12.07864947      -0.17383383      -0.28640701      -0.02677830
O        3.15285639       3.15276434      16.77151988       0.00385717      -0.00569628       0.06062224
O        1.97043419       1.97038596      10.08816385       0.04112968      -0.03128698      -0.04283535
O        3.15282654       1.18223686      14.82382797      -0.19599699       0.14833671      -0.05695328
10
Lattice="3.940949890606662 0.0 0.0 0.0 3.940949890606662 0.0 0.0 0.0 26.940967945119528" Properties=species:S:1:pos:R:3:forces:R:3 tau=tau38 tau_p=3 tau_q=8 stage=B constraint=xy_fixed_z_free force_label=raw_dft energy=-15499.452085399755 free_energy=-15499.452085399755 stress="0.010088715875811576 -0.00019464941442228376 0.0028196620362775163 -0.00019464941442228376 0.010110751658576361 -0.0026745931330760028 0.0028196620362775163 -0.0026745931330760028 -1.744499468878958e-05" pbc="T T T"
Sr       0.00003612       0.00009431      10.42470819      -0.00246517       0.00160848       0.02156127
Sr       1.18218697       3.15274591      15.19362335      -0.12725187       0.20410754      -0.07034744
Ti       1.97047269       1.97057450      11.89305632       0.21095979      -0.19540924      -0.02807953
Ti       3.15248573       1.18222079      16.64905860      -0.03762270       0.02204824       0.01049961
O        0.00000902       1.97050521      11.98143102       0.26230034       0.14899491       0.04416461
O        1.18247295       1.18228858      16.77934920       0.00540240      -0.01409299       0.04324596
O        1.97049401       3.94093312      12.06101254      -0.16534533      -0.27272565      -0.02653893
O        3.15285639       3.15276434      16.78793469       0.00386051      -0.00541294       0.02384004
O        1.97043419       1.97038596      10.07097357       0.03843028      -0.02975409      -0.00401298
O        3.15282654       1.18223686      14.83417248      -0.18826877       0.14063549      -0.01433261
10
Lattice="3.940949890606662 0.0 0.0 0.0 3.940949890606662 0.0 0.0 0.0 26.940967945119528" Properties=species:S:1:pos:R:3:forces:R:3 tau=tau38 tau_p=3 tau_q=8 stage=B constraint=xy_fixed_z_free force_label=raw_dft energy=-15499.45248703978 free_energy=-15499.45248703978 stress="0.010323764225302635 -0.0001882223111158876 0.0027921173078215324 -0.0001882223111158876 0.010236539251858688 -0.0026351123556224263 0.0027921173078215324 -0.0026351123556224263 0.0002543296594102481" pbc="T T T"
Sr       0.00003612       0.00009431      10.42005946      -0.00246980       0.00162082       0.01609716
Sr       1.18218697       3.15274591      15.19600464      -0.12629130       0.20055247      -0.04282558
Ti       1.97047269       1.97057450      11.88620848       0.20769706      -0.19278749      -0.00799202
Ti       3.15248573       1.18222079      16.65476881      -0.03732008       0.02173174       0.01407448
O        0.00000902       1.97050521      11.97944627       0.25977424       0.14762349       0.02320575
O        1.18247295       1.18228858      16.78773176       0.00536923      -0.01371658       0.01446991
O        1.97049401       3.94093312      12.05342001      -0.16222967      -0.26783927      -0.02679449
O        3.15285639       3.15276434      16.79522780       0.00390242      -0.00529107      -0.00033090
O        1.97043419       1.97038596      10.06416962       0.03746920      -0.02930466       0.00681522
O        3.15282654       1.18223686      14.83828312      -0.18590104       0.13741081       0.00327996
10
Lattice="3.940949890606662 0.0 0.0 0.0 3.940949890606662 0.0 0.0 0.0 26.940967945119528" Properties=species:S:1:pos:R:3:forces:R:3 tau=tau38 tau_p=3 tau_q=8 stage=B constraint=xy_fixed_z_free force_label=raw_dft energy=-15499.452670444507 free_energy=-15499.452670444507 stress="0.010491787068884135 -0.00018730415350068813 0.0028022170415887265 -0.00018730415350068813 0.010293465024001053 -0.0026314397251616284 0.0028022170415887265 -0.0026314397251616284 0.0003443091056997944" pbc="T T T"
Sr       0.00003612       0.00009431      10.41994108      -0.00252251       0.00167096       0.01496613
Sr       1.18218697       3.15274591      15.19370270      -0.12716753       0.20056302      -0.01667180
Ti       1.97047269       1.97057450      11.88533488       0.20761015      -0.19327831       0.00087906
Ti       3.15248573       1.18222079      16.65595164      -0.03759518       0.02170834       0.00890604
O        0.00000902       1.97050521      11.98144563       0.26123745       0.14851489       0.00942309
O        1.18247295       1.18228858      16.78974582       0.00539983      -0.01366773       0.00088292
O        1.97049401       3.94093312      12.05090898      -0.16167482      -0.26709108      -0.02083905
O        3.15285639       3.15276434      16.79622343       0.00397518      -0.00524736      -0.00944829
O        1.97043419       1.97038596      10.06351110       0.03736353      -0.02945944       0.00545177
O        3.15282654       1.18223686      14.83855471      -0.18662635       0.13628647       0.00644961
