Sr Ti O
 1.0000000000000000
     3.9409498906066620    0.0000000000000000    0.0000000000000000
     0.0000000000000000    3.9409498906066620    0.0000000000000000
     0.0000000000000000    0.0000000000000000   26.9409679451195281
 Sr  Ti  O
   2   2   6
Cartesian
  0.0000362567389936  0.0000941887023855  9.9388009399026274
  1.9703768156510548  2.3645557469443910 15.6875469111832775
  1.9704725807333965  1.9705746513355633 11.3898480490592942
  3.9406756004942758  0.3940307515774493 17.1399623181419649
  0.0000090641847484  1.9705052906174889 11.5345388420079509
  1.9706629286131130  0.3940985359155678 17.2816359198543736
  1.9704938618628061  3.9409329445221326 11.5299507881453067
  0.0000965532723199  2.3645742694088767 17.2755463640834073
  1.9704343535194577  1.9703858798358034  9.5732644383192298
  0.0000666020531513  0.3940469094720008 15.3242244352484249
