10
Lattice="3.940949890606662 0.0 0.0 0.0 3.940949890606662 0.0 0.0 0.0 26.940967945119528" Properties=species:S:1:pos:R:3:forces:R:3 tau=tau56 tau_p=5 tau_q=6 stage=B constraint=xy_fixed_z_free force_label=raw_dft energy=-15499.238282019245 free_energy=-15499.238282019245 stress="0.011005955333395828 -0.0 -9.181576151994517e-07 -0.0 0.01063226518400965 -0.00046458775329092256 -9.181576151994517e-07 -0.00046458775329092256 9.089760390474572e-05" pbc="T T T"
Sr       0.00003626       0.00009419       9.93880094      -0.00012084      -0.00020415       0.02436634
Sr       1.97037682       2.36455575      15.68754691      -0.00017869       0.03277077      -0.01398680
Ti       1.97047258       1.97057465      11.38984805       0.00005656      -0.02869454      -0.01265651
Ti       3.94067560       0.39403075      17.13996232       0.00055639       0.00148687       0.00472852
O        0.00000906       1.97050529      11.53453884      -0.00002391       0.01869758      -0.02277483
O        1.97066293       0.39409854      17.28163592      -0.00047540      -0.00196407      -0.00683014
O        1.97049386       3.94093294      11.52995079      -0.00002648      -0.03176315       0.01400994
O        0.00009655       2.36457427      17.27554636       0.00023500      -0.00069754       0.01988003
O        1.97043435       1.97038588       9.57326444       0.00014475      -0.00304881      -0.00529004
O        0.00006660       0.39404691      15.32422444      -0.00016789       0.01341679      -0.00144625
