10
Lattice="3.940949890606662 0.0 0.0 0.0 3.940949890606662 0.0 0.0 0.0 26.940967945119528" Properties=species:S:1:pos:R:3:forces:R:3 tau=tau83 tau_p=8 tau_q=3 stage=A constraint=rigid_scf force_label=raw_dft energy=-15498.235159795684 free_energy=-15498.235159795684 stress="0.009605764970216663 -0.0019079315243844606 -0.006844865021311912 -0.0019079315243844606 0.014469245857928158 0.012765145324117978 -0.006844865021311912 0.012765145324117978 -0.015717940214599414" pbc="T T T"
Sr       0.00003626       0.00009419      10.75260867       0.00346199       0.00623210       0.40415633
Sr       3.15266178       1.18227078      14.64522241       1.03331068      -1.04629166       3.41243676
Ti       1.97047258       1.97057465      12.38212169      -1.21108523       0.88929753      -2.46009681
Ti       1.18201068       3.15269568      16.28444791       0.04610888      -0.12249018      -0.18967722
O        0.00000906       1.97050529      12.45001441      -0.66908640      -0.35500970      -0.77413525
O        3.15294790       3.15276346      16.39256827      -0.00975965       0.00315423      -0.08523181
O        1.97049386       3.94093294      12.44909065       0.83218279       1.45424294      -1.44299180
O        1.18238152       1.18228930      16.37955485      -0.07986335       0.01427091      -0.12626251
O        1.97043435       1.97038588      10.49176941      -0.14849406       0.22281848       0.32631876
O        1.18235157       3.15271183      14.44792112       0.20322436      -1.06622517       0.93548303
