10
Lattice="3.940949890606662 0.0 0.0 0.0 3.940949890606662 0.0 0.0 0.0 26.940967945119528" Properties=species:S:1:pos:R:3:forces:R:3 tau=tau50 tau_p=5 tau_q=0 stage=A constraint=rigid_scf force_label=raw_dft energy=-15497.066925425559 free_energy=-15497.066925425559 stress="0.02275929096556401 0.0 -9.181576151994517e-07 0.0 0.003976540631428825 9.181576151994517e-07 -9.181576151994517e-07 9.181576151994517e-07 -0.03966532713423151" pbc="T T T"
Sr       0.00003626       0.00009419      10.75260867      -0.00009796       0.00004191       0.28996979
Sr       1.97037682       3.94093570      14.64522241      -0.00022394       0.00015735       5.36127485
Ti       1.97047258       1.97057465      12.38212169       0.00005759      -0.00071168      -2.78401776
Ti       3.94067560       1.97041071      16.28444791       0.00030725      -0.00002931       0.42294364
O        0.00000906       1.97050529      12.45001441      -0.00009436       0.00008150      -4.27500999
O        1.97066293       1.97047849      16.39256827      -0.00043966       0.00000103      -0.33664276
O        1.97049386       3.94093294      12.44909065       0.00009230       0.00026585      -1.82394624
O        0.00009655       0.00000434      16.37955485       0.00034453       0.00000051      -0.07967360
O        1.97043435       1.97038588      10.49176941       0.00012187       0.00021983       0.30998145
O        0.00006660       1.97042687      14.44792112      -0.00006736      -0.00002700       2.91512062
