10
Lattice="3.940949890606662 0.0 0.0 0.0 3.940949890606662 0.0 0.0 0.0 26.940967945119528" Properties=species:S:1:pos:R:3:forces:R:3 tau=tau66 tau_p=6 tau_q=6 stage=A constraint=rigid_scf force_label=raw_dft energy=-15496.62400967603 free_energy=-15496.62400967603 stress="0.01649653787228855 0.0005986387651100426 -0.005380403625068787 0.0005986387651100426 0.01612835666859357 -0.0053785673098383875 -0.005380403625068787 -0.0053785673098383875 -0.02441013835769262" pbc="T T T"
Sr       0.00003626       0.00009419      10.75260867       0.00128015       0.00124416       0.67942712
Sr       2.36447180       2.36455575      14.64522241       1.10510642       1.10439319       6.08858672
Ti       1.97047258       1.97057465      12.38212169      -1.00779351      -1.00763873      -6.65764615
Ti       0.39382070       0.39403075      16.28444791      -0.01093027      -0.01175971      -0.90214174
O        0.00000906       1.97050529      12.45001441      -0.42695482       0.49113084      -0.41782200
O        2.36475792       0.39409854      16.39256827      -0.00257547      -0.06099531      -0.12871662
O        1.97049386       3.94093294      12.44909065       0.49090381      -0.42589733      -0.40987395
O        0.39419154       2.36457427      16.37955485      -0.06257499      -0.00167944      -0.09056120
O        1.97043435       1.97038588      10.49176941      -0.05907701      -0.05877490       0.43998414
O        0.39416159       0.39404691      14.44792112      -0.02738431      -0.03002277       1.39876368
