10
Lattice="3.940949890606662 0.0 0.0 0.0 3.940949890606662 0.0 0.0 0.0 26.940967945119528" Properties=species:S:1:pos:R:3:forces:R:3 tau=tau78 tau_p=7 tau_q=8 stage=B constraint=xy_fixed_z_free force_label=raw_dft energy=-15498.233334864224 free_energy=-15498.233334864224 stress="0.014824572855010347 0.0019079315243844606 -0.012773408742654773 0.0019079315243844606 0.009302772957200844 -0.0068402742332359144 -0.012773408742654773 -0.0068402742332359144 -0.015696822589449825" pbc="T T T"
Sr       0.00003626       0.00009419      10.75260867      -0.00643290       0.00354889       0.40477880
Sr       2.75856679       3.15274573      14.64522241       1.04572679       1.03058222       3.41156387
Ti       1.97047258       1.97057465      12.38212169      -0.88897383      -1.21109706      -2.46043954
Ti       0.78791569       1.18222073      16.28444791       0.12372637       0.04565328      -0.19075014
O        0.00000906       1.97050529      12.45001441      -1.45954790       0.83275152      -1.44975406
O        2.75885291       1.18228851      16.39256827      -0.01665329      -0.07804558      -0.16386797
O        1.97049386       3.94093294      12.44909065       0.35568024      -0.66648933      -0.76762933
O        0.78828653       3.15276425      16.37955485      -0.00327301      -0.00781075      -0.04788808
O        1.97043435       1.97038588      10.49176941      -0.22260354      -0.14812511       0.32701655
O        0.78825658       1.18223689      14.44792112       1.07235082       0.19903167       0.93696990
10
Lattice="3.940949890606662 0.0 0.0 0.0 3.940949890606662 0.0 0.0 0.0 26.940967945119528" Properties=species:S:1:pos:R:3:forces:R:3 tau=tau78 tau_p=7 tau_q=8 stage=B constraint=xy_fixed_z_free force_label=raw_dft energy=-15498.598134213806 free_energy=-15498.598134213806 stress="0.01193880347043847 0.0017123639523469773 -0.010853541169272719 0.0017123639523469773 0.007544501124093894 -0.006033213689475598 -0.010853541169272719 -0.006033213689475598 -0.017655252782670255" pbc="T T T"
Sr       0.00003612       0.00009431      10.76093976      -0.00625678       0.00341777       0.43187154
Sr       2.75856694       3.15274591      14.71543855       0.79408778       0.84294568       2.39528239
Ti       1.97047269       1.97057450      12.33148189      -0.70883026      -0.93819554      -1.11475165
Ti       0.78791578       1.18222079      16.28052195       0.10815654       0.04051236       0.08638958
O        0.00000902       1.97050521      12.42017603      -1.28856826       0.75736420      -1.29552026
O        2.75885292       1.18228858      16.38919565      -0.01868524      -0.07083184      -0.03696835
O        1.97049401       3.94093312      12.43329151       0.39284708      -0.68681056      -0.63482157
O        0.78828644       3.15276434      16.37856919      -0.00247674      -0.00839748       0.06954423
O        1.97043419       1.97038596      10.49849995      -0.20354472      -0.14057018      -0.48227596
O        0.78825659       1.18223686      14.46720550       0.93327085       0.20056559       0.58124981
10
Lattice="3.940949890606662 0.0 0.0 0.0 3.940949890606662 0.0 0.0 0.0 26.940967945119528" Properties=species:S:1:pos:R:3:forces:R:3 tau=tau78 tau_p=7 tau_q=8 stage=B constraint=xy_fixed_z_free force_label=raw_dft energy=-15498.851329337831 free_energy=-15498.851329337831 stress="0.008635272370950842 0.001502105858466303 -0.009187085097685713 0.001502105858466303 0.005295014966855238 -0.005452019919054344 -0.009187085097685713 -0.005452019919054344 -0.018348461782145845" pbc="T T T"
Sr       0.00003612       0.00009431      10.77414134      -0.00332392       0.00570168       0.24714241
Sr       2.75856694       3.15274591      14.79267598       0.59971958       0.70305299       1.38807946
Ti       1.97047269       1.97057450      12.29253026      -0.58758526      -0.74341082      -0.41168761
Ti       0.78791578       1.18222079      16.28222689       0.09354727       0.03534804       0.23656643
O        0.00000902       1.97050521      12.37976307      -1.11861114       0.66932474      -0.98605663
O        2.75885292       1.18228858      16.38762055      -0.01884927      -0.06297814       0.15520001
O        1.97049401       3.94093312      12.41329153       0.41338454      -0.68860236      -0.41443792
O        0.78828644       3.15276434      16.38030561      -0.00209108      -0.00813266       0.24533981
O        1.97043419       1.97038596      10.48644069      -0.18182533      -0.12770618      -0.80327228
O        0.78825659       1.18223686      14.48632404       0.80563435       0.21740271       0.34312606
10
Lattice="3.940949890606662 0.0 0.0 0.0 3.940949890606662 0.0 0.0 0.0 26.940967945119528" Properties=species:S:1:pos:R:3:forces:R:3 tau=tau78 tau_p=7 tau_q=8 stage=B constraint=xy_fixed_z_free force_label=raw_dft energy=-15499.048277170832 free_energy=-15499.048277170832 stress="0.003314548990870021 0.0012404309381344593 -0.007140511773406136 0.0012404309381344593 0.0013102109168896176 -0.004782683017573943 -0.007140511773406136 -0.004782683017573943 -0.01783521167524935" pbc="T T T"
Sr       0.00003612       0.00009431      10.79310689       0.00269889       0.00988075      -0.24213673
Sr       2.75856694       3.15274591      14.90853213       0.39588895       0.54433314       0.03693415
Ti       1.97047269       1.97057450      12.24233410      -0.46797086      -0.54371916      -0.15590887
Ti       0.78791578       1.18222079      16.29258299       0.07492555       0.03009862       0.34850121
O        0.00000902       1.97050521      12.30930321      -0.88337577       0.53401350      -0.41584585
O        2.75885292       1.18228858      16.39325235      -0.01800364      -0.05130508       0.48724513
O        1.97049401       3.94093312      12.38153544       0.40975825      -0.65574135      -0.09446362
O        0.78828644       3.15276434      16.39213244      -0.00169641      -0.00810900       0.54074285
O        1.97043419       1.97038596      10.44688368      -0.14922760      -0.10431865      -0.63840466
O        0.78825659       1.18223686      14.51565673       0.63700289       0.24486698       0.13333638
10
Lattice="3.940949890606662 0.0 0.0 0.0 3.940949890606662 0.0 0.0 0.0 26.940967945119528" Properties=species:S:1:pos:R:3:forces:R:3 tau=tau78 tau_p=7 tau_q=8 stage=B constraint=xy_fixed_z_free force_label=raw_dft energy=-15499.095057893517 free_energy=-15499.095057893517 stress="0.001786734719178133 0.001140351758077719 -0.006432612252087359 0.001140351758077719 0.0002901378064030267 -0.004568752293232472 -0.006432612252087359 -0.004568752293232472 -0.016565399693428507" pbc="T T T"
Sr       0.00003612       0.00009431      10.79267286       0.00501442       0.01125732      -0.45426456
Sr       2.75856694       3.15274591      14.94990381       0.33586578       0.49206672      -0.34648006
Ti       1.97047269       1.97057450      12.21783698      -0.43299897      -0.48357874      -0.19287825
Ti       0.78791578       1.18222079      16.30432870       0.06931746       0.02950829       0.36403633
O        0.00000902       1.97050521      12.27515697      -0.79187303       0.47735307      -0.18941471
O        2.75885292       1.18228858      16.40758261      -0.01713435      -0.04645058       0.55679322
O        1.97049401       3.94093312      12.36833155       0.39923421      -0.63456112      -0.02362124
O        0.78828644       3.15276434      16.40989088      -0.00130535      -0.00842113       0.58851112
O        1.97043419       1.97038596      10.41990342      -0.13586326      -0.09359998      -0.42284311
O        0.78825659       1.18223686      14.52971219       0.56974309       0.25642615       0.12016128
10
Lattice="3.940949890606662 0.0 0.0 0.0 3.940949890606662 0.0 0.0 0.0 26.940967945119528" Properties=species:S:1:pos:R:3:forces:R:3 tau=tau78 tau_p=7 tau_q=8 stage=B constraint=xy_fixed_z_free force_label=raw_dft energy=-15499.157069508039 free_energy=-15499.157069508039 stress="0.0011091343991609377 0.0010136460071801946 -0.005662278012935018 0.0010136460071801946 0.0002543296594102481 -0.004347476307969404 -0.005662278012935018 -0.004347476307969404 -0.014181862524370733" pbc="T T T"
Sr       0.00003612       0.00009431      10.77859199       0.00732404       0.01232638      -0.64079476
Sr       2.75856694       3.15274591      14.99061058       0.27764392       0.43758402      -0.58889832
Ti       1.97047269       1.97057450      12.18045807      -0.39698733      -0.42215997      -0.17905779
Ti       0.78791578       1.18222079      16.32806489       0.06330596       0.02955046       0.37286472
O        0.00000902       1.97050521      12.22964812      -0.68557103       0.40953817       0.02703721
O        2.75885292       1.18228858      16.43992756      -0.01556494      -0.04066328       0.52983751
O        1.97049401       3.94093312      12.35157205       0.38107503      -0.60434191      -0.02456792
O        0.78828644       3.15276434      16.44710394      -0.00066386      -0.00897212       0.53110481
O        1.97043419       1.97038596      10.37864092      -0.11948611      -0.08007109      -0.18149700
O        0.78825659       1.18223686      14.55070184       0.48892432       0.26720910       0.15397154
10
Lattice="3.940949890606662 0.0 0.0 0.0 3.940949890606662 0.0 0.0 0.0 26.940967945119528" Properties=species:S:1:pos:R:3:forces:R:3 tau=tau78 tau_p=7 tau_q=8 stage=B constraint=xy_fixed_z_free force_label=raw_dft energy=-15499.24417205934 free_energy=-15499.24417205934 stress="0.00182529733901651 0.000835523429831501 -0.004776255914267548 0.000835523429831501 0.0018849775840044745 -0.004084883230022361 -0.004776255914267548 -0.004084883230022361 -0.010083206930120379" pbc="T T T"
Sr       0.00003612       0.00009431      10.73941867       0.00911122       0.01227239      -0.76502686
Sr       2.75856694       3.15274591      15.03293031       0.21838642       0.37863171      -0.62719773
Ti       1.97047269       1.97057450      12.12205481      -0.35558177      -0.35615461      -0.10357689
Ti       0.78791578       1.18222079      16.37331743       0.05778966       0.03064292       0.37295368
O        0.00000902       1.97050521      12.16495417      -0.55824178       0.32726467       0.21956244
O        2.75885292       1.18228858      16.50125305      -0.01335894      -0.03356241       0.36604410
O        1.97049401       3.94093312      12.32596014       0.35047247      -0.55761468      -0.12051558
O        0.78828644       3.15276434      16.51536722      -0.00022497      -0.00944366       0.32663809
O        1.97043419       1.97038596      10.31408978      -0.09892114      -0.06319977       0.08603503
O        0.78825659       1.18223686      14.58597438       0.39056883       0.27116397       0.24508398
10
Lattice="3.940949890606662 0.0 0.0 0.0 3.940949890606662 0.0 0.0 0.0 26.940967945119528" Properties=species:S:1:pos:R:3:forces:R:3 tau=tau78 tau_p=7 tau_q=8 stage=B constraint=xy_fixed_z_free force_label=raw_dft energy=-15499.334185820539 free_energy=-15499.334185820539 stress="0.004478772846942925 0.0006170019174140315 -0.003917778544056061 0.0006170019174140315 0.005777965872450149 -0.0037874001626977383 -0.003917778544056061 -0.0037874001626977383 -0.004622923592529239" pbc="T T T"
Sr       0.00003612       0.00009431      10.66298028       0.00904231       0.01037723      -0.71231230
Sr       2.75856694       3.15274591      15.06949120       0.16930200       0.32463648      -0.37673706
Ti       1.97047269       1.97057450      12.04422754      -0.31267725      -0.29383544       0.04791251
Ti       0.78791578       1.18222079      16.44662017       0.05240525       0.03164771       0.35484643
O        0.00000902       1.97050521      12.08530735      -0.43097217       0.24580980       0.30141222
O        2.75885292       1.18228858      16.59409973      -0.01044022      -0.02674230       0.06867417
O        1.97049401       3.94093312      12.28697809       0.30713704      -0.49340010      -0.31243763
O        0.78828644       3.15276434      16.61612251       0.00016558      -0.00947374      -0.00918681
O        1.97043419       1.97038596      10.22843817      -0.07710456      -0.04656242       0.28544902
O        0.78825659       1.18223686      14.64105492       0.29314227       0.25754252       0.35237946
10
Lattice="3.940949890606662 0.0 0.0 0.0 3.940949890606662 0.0 0.0 0.0 26.940967945119528" Properties=species:S:1:pos:R:3:forces:R:3 tau=tau78 tau_p=7 tau_q=8 stage=B constraint=xy_fixed_z_free force_label=raw_dft energy=-15499.380343810704 free_energy=-15499.380343810704 stress="0.007135920985330138 0.00047836011751891435 -0.0035615333893586733 0.00047836011751891435 0.009147604320232138 -0.003627640737653034 -0.0035615333893586733 -0.003627640737653034 -0.0014056993088703605" pbc="T T T"
Sr       0.00003612       0.00009431      10.59487140       0.00731067       0.00778376      -0.49896396
Sr       2.75856694       3.15274591      15.08129029       0.15336990       0.30214884      -0.08576197
Ti       1.97047269       1.97057450      11.99839913      -0.29128156      -0.26739833       0.13717504
Ti       0.78791578       1.18222079      16.50447990       0.04999099       0.03220667       0.26609247
O        0.00000902       1.97050521      12.04164994      -0.37097445       0.20801047       0.25004852
O        2.75885292       1.18228858      16.65639560      -0.00881734      -0.02348189      -0.10037638
O        1.97049401       3.94093312      12.25341526       0.27687824      -0.44896063      -0.41292045
O        0.78828644       3.15276434      16.68147768      -0.00008510      -0.00903563      -0.18631833
O        1.97043419       1.97038596      10.17796174      -0.06612363      -0.03933479       0.27536875
O        0.78825659       1.18223686      14.68537903       0.24973254       0.23806153       0.35565659
10
Lattice="3.940949890606662 0.0 0.0 0.0 3.940949890606662 0.0 0.0 0.0 26.940967945119528" Properties=species:S:1:pos:R:3:forces:R:3 tau=tau78 tau_p=7 tau_q=8 stage=B constraint=xy_fixed_z_free force_label=raw_dft energy=-15499.4103381028 free_energy=-15499.4103381028 stress="0.009487322637855934 0.00037185383415577793 -0.0034164644861571594 0.00037185383415577793 0.01170650959379301 -0.0035229707695202963 -0.0034164644861571594 -0.0035229707695202963 0.0004205161877613489" pbc="T T T"
Sr       0.00003612       0.00009431      10.53204892       0.00494037       0.00526125      -0.21500902
Sr       2.75856694       3.15274591      15.08530223       0.15045427       0.29098871       0.16868802
Ti       1.97047269       1.97057450      11.97156403      -0.27818179      -0.25580497       0.12992221
Ti       0.78791578       1.18222079      16.55390840       0.04868770       0.03195856       0.11898988
O        0.00000902       1.97050521      12.01768344      -0.33768869       0.18765505       0.16718778
O        2.75885292       1.18228858      16.69896076      -0.00764183      -0.02162632      -0.15247644
O        1.97049401       3.94093312      12.21780464       0.25126131      -0.41122738      -0.41045502
O        0.78828644       3.15276434      16.72378245      -0.00089732      -0.00830363      -0.23111441
O        1.97043419       1.97038596      10.14773740      -0.05938965      -0.03614405       0.16138095
O        0.78825659       1.18223686      14.72652770       0.22845537       0.21724279       0.26288656
10
Lattice="3.940949890606662 0.0 0.0 0.0 3.940949890606662 0.0 0.0 0.0 26.940967945119528" Properties=species:S:1:pos:R:3:forces:R:3 tau=tau78 tau_p=7 tau_q=8 stage=B constraint=xy_fixed_z_free force_label=raw_dft energy=-15499.42627050411 free_energy=-15499.42627050411 stress="0.01068368201046082 0.00030758280109181635 -0.0033733110782427854 0.00030758280109181635 0.012613649317610066 -0.0034366639536915476 -0.0033733110782427854 -0.0034366639536915476 0.000768497923921941" pbc="T T T"
Sr       0.00003612       0.00009431      10.49150861       0.00327610       0.00348976      -0.00005065
Sr       2.75856694       3.15274591      15.09162872       0.15208564       0.28323787       0.27683428
Ti       1.97047269       1.97057450      11.96111364      -0.27075439      -0.25111939       0.05670671
Ti       0.78791578       1.18222079      16.58416350       0.04838970       0.03131347       0.00036433
O        0.00000902       1.97050521      12.01006280      -0.32220242       0.17902051       0.11671806
O        2.75885292       1.18228858      16.71783783      -0.00699957      -0.02064544      -0.10794854
O        1.97049401       3.94093312      12.18656947       0.23239610      -0.38249839      -0.32907369
O        0.78828644       3.15276434      16.74014785      -0.00172315      -0.00769480      -0.17371401
O        1.97043419       1.97038596      10.13597632      -0.05559394      -0.03548945       0.03285047
O        0.78825659       1.18223686      14.75631125       0.22112618       0.20038561       0.12731280
10
Lattice="3.940949890606662 0.0 0.0 0.0 3.940949890606662 0.0 0.0 0.0 26.940967945119528" Properties=species:S:1:pos:R:3:forces:R:3 tau=tau78 tau_p=7 tau_q=8 stage=B constraint=xy_fixed_z_free force_label=raw_dft energy=-15499.436305926421 free_energy=-15499.436305926421 stress="0.010961883767866254 0.00026902018125343936 -0.003325566882252414 0.00026902018125343936 0.012368501234351813 -0.003320976094176417 -0.003325566882252414 -0.003320976094176417 0.0003608359427733845" pbc="T T T"
Sr       0.00003612       0.00009431      10.46819036       0.00235487       0.00239190       0.11777118
Sr       2.75856694       3.15274591      15.10606730       0.15190026       0.27188747       0.25460375
Ti       1.97047269       1.97057450      11.95538885      -0.26244638      -0.24497368      -0.02525723
Ti       0.78791578       1.18222079      16.60165032       0.04758443       0.02975203      -0.06875284
O        0.00000902       1.97050521      12.00846489      -0.31195812       0.17415959       0.09885043
O        2.75885292       1.18228858      16.72511641      -0.00677357      -0.01965711      -0.02221870
O        1.97049401       3.94093312      12.15777468       0.21637196      -0.35683595      -0.21913461
O        0.78828644       3.15276434      16.74398241      -0.00252277      -0.00714921      -0.07533564
O        1.97043419       1.97038596      10.13056239      -0.05246413      -0.03542903      -0.06351036
O        0.78825659       1.18223686      14.77812235       0.21795293       0.18585399       0.00298402
10
Lattice="3.940949890606662 0.0 0.0 0.0 3.940949890606662 0.0 0.0 0.0 26.940967945119528" Properties=species:S:1:pos:R:3:forces:R:3 tau=tau78 tau_p=7 tau_q=8 stage=B constraint=xy_fixed_z_free force_label=raw_dft energy=-15499.44342578501 free_energy=-15499.44342578501 stress="0.010623083607857655 0.00024422992564305417 -0.003223651386965275 0.00024422992564305417 0.011465952298610754 -0.0031538714082101167 -0.003223651386965275 -0.0031538714082101167 -0.0002928922792486251" pbc="T T T"
Sr       0.00003612       0.00009431      10.45467631       0.00203117       0.00183628       0.14524959
Sr       2.75856694       3.15274591      15.12983729       0.14745225       0.25422734       0.13878403
Ti       1.97047269       1.97057450      11.94619979      -0.25017219      -0.23392282      -0.08220974
Ti       0.78791578       1.18222079      16.61340551       0.04553295       0.02767227      -0.08108694
O        0.00000902       1.97050521      12.00609504      -0.30028402       0.16878341       0.09673596
O        2.75885292       1.18228858      16.73125243      -0.00670029      -0.01828337       0.06242330
O        1.97049401       3.94093312      12.12890340       0.20057484      -0.33066829      -0.11419709
O        0.78828644       3.15276434      16.74647074      -0.00310152      -0.00661159       0.02105991
O        1.97043419       1.97038596      10.12255761      -0.04875814      -0.03481377      -0.10629429
O        0.78825659       1.18223686      14.79592185       0.21342470       0.17178080      -0.08046447
10
Lattice="3.940949890606662 0.0 0.0 0.0 3.940949890606662 0.0 0.0 0.0 26.940967945119528" Properties=species:S:1:pos:R:3:forces:R:3 tau=tau78 tau_p=7 tau_q=8 stage=B constraint=xy_fixed_z_free force_label=raw_dft energy=-15499.447924098879 free_energy=-15499.447924098879 stress="0.010153905066490736 0.00022678493095426458 -0.0030785824837637615 0.00022678493095426458 0.010593702564171274 -0.002967485412324628 -0.0030785824837637615 -0.002967485412324628 -0.000616083759798832" pbc="T T T"
Sr       0.00003612       0.00009431      10.44533875       0.00206100       0.00167559       0.10727208
Sr       2.75856694       3.15274591      15.15639149       0.13982430       0.23423855       0.01131465
Ti       1.97047269       1.97057450      11.93058264      -0.23547808      -0.21947091      -0.09137572
Ti       0.78791578       1.18222079      16.62411278       0.04303590       0.02532151      -0.05345478
O        0.00000902       1.97050521      11.99953101      -0.28652605       0.16194170       0.09165700
O        2.75885292       1.18228858      16.74296723      -0.00668024      -0.01668646       0.10039618
O        1.97049401       3.94093312      12.10264860       0.18627822      -0.30694010      -0.05085771
O        0.78828644       3.15276434      16.75531601      -0.00337894      -0.00613080       0.06797508
O        1.97043419       1.97038596      10.10799157      -0.04472331      -0.03326828      -0.08959626
O        0.78825659       1.18223686      14.81043989       0.20558721       0.15931918      -0.09333079
10
Lattice="3.940949890606662 0.0 0.0 0.0 3.940949890606662 0.0 0.0 0.0 26.940967945119528" Properties=species:S:1:pos:R:3:forces:R:3 tau=tau78 tau_p=7 tau_q=8 stage=B constraint=xy_fixed_z_free force_label=raw_dft energy=-15499.450763198613 free_energy=-15499.450763198613 stress="0.009942728814994861 0.00020842177865027553 -0.0029224956891798545 0.00020842177865027553 0.010123605865189155 -0.0027893628349759344 -0.0029224956891798545 -0.0027893628349759344 -0.00044438828575653463" pbc="T T T"
Sr       0.00003612       0.00009431      10.43451750       0.00217130       0.00164191       0.05321746
Sr       2.75856694       3.15274591      15.18041306       0.13177032       0.21556977      -0.06647613
Ti       1.97047269       1.97057450      11.90985501      -0.22070787      -0.20466264      -0.06429018
Ti       0.78791578       1.18222079      16.63735283       0.04039872       0.02328571      -0.01504507
O        0.00000902       1.97050521      11.98934329      -0.27195124       0.15420140       0.07245472
O        2.75885292       1.18228858      16.76176874      -0.00653112      -0.01515203       0.08575298
O        1.97049401       3.94093312      12.07819168       0.17352658      -0.28602803      -0.02657904
O        0.78828644       3.15276434      16.77192799      -0.00341288      -0.00574359       0.06047852
O        1.97043419       1.97038596      10.08774071      -0.04072962      -0.03124559      -0.04243297
O        0.78825659       1.18223686      14.82420915       0.19546606       0.14813334      -0.05708029
10
Lattice="3.940949890606662 0.0 0.0 0.0 3.940949890606662 0.0 0.0 0.0 26.940967945119528" Properties=species:S:1:pos:R:3:forces:R:3 tau=tau78 tau_p=7 tau_q=8 stage=B constraint=xy_fixed_z_free force_label=raw_dft energy=-15499.45205641963 free_energy=-15499.45205641963 stress="0.010085043245350778 0.0001955675720374832 -0.0028214983515079148 0.0001955675720374832 0.010111669816191562 -0.0026755112906912022 -0.0028214983515079148 -0.0026755112906912022 -2.1117625149587388e-05" pbc="T T T"
Sr       0.00003612       0.00009431      10.42469742       0.00219855       0.00160668       0.02196211
Sr       2.75856694       3.15274591      15.19359868       0.12693459       0.20421167      -0.07041943
Ti       1.97047269       1.97057450      11.89312052      -0.21086003      -0.19543932      -0.02855390
Ti       0.78791578       1.18222079      16.64904677       0.03869022       0.02212589       0.01024019
O        0.00000902       1.97050521      11.98136413      -0.26237054       0.14896895       0.04477139
O        2.75885292       1.18228858      16.77926856      -0.00635577      -0.01412024       0.04371132
O        1.97049401       3.94093312      12.06111682       0.16532013      -0.27280073      -0.02661066
O        0.78828644       3.15276434      16.78789412      -0.00340311      -0.00546359       0.02416220
O        1.97043419       1.97038596      10.07103062      -0.03811635      -0.02975486      -0.00420144
O        0.78825659       1.18223686      14.83418230       0.18796230       0.14066531      -0.01506204
10
Lattice="3.940949890606662 0.0 0.0 0.0 3.940949890606662 0.0 0.0 0.0 26.940967945119528" Properties=species:S:1:pos:R:3:forces:R:3 tau=tau78 tau_p=7 tau_q=8 stage=B constraint=xy_fixed_z_free force_label=raw_dft energy=-15499.452467855757 free_energy=-15499.452467855757 stress="0.010321927910072236 0.00018914046873108706 -0.0027948717806671308 0.00018914046873108706 0.010237457409473887 -0.002636948670852825 -0.0027948717806671308 -0.002636948670852825 0.00025341150179504865" pbc="T T T"
Sr       0.00003612       0.00009431      10.42017847       0.00220678       0.00162571       0.01597426
Sr       2.75856694       3.15274591      15.19587730       0.12598585       0.20069646      -0.04258750
Ti       1.97047269       1.97057450      11.88631453      -0.20762712      -0.19284662      -0.00788069
Ti       0.78791578       1.18222079      16.65466009       0.03834183       0.02180913       0.01405545
O        0.00000902       1.97050521      11.97947177      -0.25993159       0.14764714       0.02344203
O        2.75885292       1.18228858      16.78761374      -0.00627452      -0.01374563       0.01444986
O        1.97049401       3.94093312      12.05361841       0.16225486      -0.26799508      -0.02720047
O        0.78828644       3.15276434      16.79514178      -0.00342317      -0.00534378      -0.00046228
O        1.97043419       1.97038596      10.06427546      -0.03716915      -0.02931495       0.00690881
O        0.78825659       1.18223686      14.83816840       0.18563622       0.13746789       0.00330027
10
Lattice="3.940949890606662 0.0 0.0 0.0 3.940949890606662 0.0 0.0 0.0 26.940967945119528" Properties=species:S:1:pos:R:3:forces:R:3 tau=tau78 tau_p=7 tau_q=8 stage=B constraint=xy_fixed_z_free force_label=raw_dft energy=-15499.452652348937 free_energy=-15499.452652348937 stress="0.010490868911268934 0.00018730415350068813 -0.002804971514434325 0.00018730415350068813 0.010293465024001053 -0.0026314397251616284 -0.002804971514434325 -0.0026314397251616284 0.0003452272633149938" pbc="T T T"
Sr       0.00003612       0.00009431      10.42000677       0.00225537       0.00167379       0.01477382
Sr       2.75856694       3.15274591      15.19366637       0.12683895       0.20063681      -0.01660830
Ti       1.97047269       1.97057450      11.88535373      -0.20748211      -0.19329605       0.00111406
Ti       0.78791578       1.18222079      16.65590352       0.03858069       0.02177879       0.00899963
O        0.00000902       1.97050521      11.98146533      -0.26135932       0.14852157       0.00936730
O        2.75885292       1.18228858      16.78972025      -0.00627812      -0.01368984       0.00065177
O        1.97049401       3.94093312      12.05096637       0.16163986      -0.26714945      -0.02097557
O        0.78828644       3.15276434      16.79620628      -0.00348282      -0.00529827      -0.00968689
O        1.97043419       1.97038596      10.06353304      -0.03705011      -0.02946304       0.00567545
O        0.78825659       1.18223686      14.83849830       0.18633736       0.13628544       0.00668898
