Sr Ti O
 1.0000000000000000
     3.9409498906066620    0.0000000000000000    0.0000000000000000
     0.0000000000000000    3.9409498906066620    0.0000000000000000
     0.0000000000000000    0.0000000000000000   26.9409679451195281
 Sr  Ti  O
   2   2   6
Cartesian
  0.0000361212000000  0.0000943054000000 10.3209514576999997
  1.5762819608000000  0.7881759597000000 15.3014802599999999
  1.9704726885999999  1.9705745045000000 11.7727417204000009
  3.5465807222999999  2.7586007549999998 16.7606741449999994
  0.0000090208000000  1.9705052130000000 11.8689987531999996
  1.5765679447000001  2.7586685502999999 16.8948294491999995
  1.9704940097000001  3.9409331233999998 11.9547951212000001
  3.5469513860999999  0.7881943893000000 16.9013998391999998
  1.9704341934000000  1.9703859550000000  9.9551366587000008
  3.5469215339000000  2.7586168262999999 14.9443125583000000
