10
Lattice="3.940949890606662 0.0 0.0 0.0 3.940949890606662 0.0 0.0 0.0 26.940967945119528" Properties=species:S:1:pos:R:3:forces:R:3 tau=tau42 tau_p=4 tau_q=2 stage=B constraint=xy_fixed_z_free force_label=raw_dft energy=-15499.356851406672 free_energy=-15499.356851406672 stress="0.010167677430718728 4.5907880759972583e-05 0.0012835843460488334 4.5907880759972583e-05 0.009954664863992454 0.0019125223124604577 0.0012835843460488334 0.0019125223124604577 -0.000646382961100414" pbc="T T T"
Sr       0.00003626       0.00009419      10.31788722      -0.00066386       0.00009642       0.02763576
Sr       1.57628183       0.78817579      15.31337776      -0.05793827      -0.17550993      -0.11752024
Ti       1.97047258       1.97057465      11.77605089       0.09494441       0.13518295      -0.04392061
Ti       3.54658061       2.75860069      16.75930439      -0.01560942      -0.00683785       0.00363425
O        0.00000906       1.97050529      11.86459182       0.10758524      -0.10128398       0.04186347
O        1.57656794       2.75866847      16.88510267       0.00196484       0.01323707       0.10090783
O        1.97049386       3.94093294      11.95851175      -0.07153272       0.18233209      -0.02089253
O        3.54695145       0.78819431      16.89379679       0.00190570       0.00318483       0.08432164
O        1.97043435       1.97038588       9.95768597       0.01546570       0.01858085      -0.01616247
O        3.54692150       2.75861684      14.94900975      -0.07612162      -0.06898218      -0.05986737
10
Lattice="3.940949890606662 0.0 0.0 0.0 3.940949890606662 0.0 0.0 0.0 26.940967945119528" Properties=species:S:1:pos:R:3:forces:R:3 tau=tau42 tau_p=4 tau_q=2 stage=B constraint=xy_fixed_z_free force_label=raw_dft energy=-15499.357578086681 free_energy=-15499.357578086681 stress="0.01028428344784906 4.5907880759972583e-05 0.0012872569765096313 4.5907880759972583e-05 0.010038217206975605 0.0019134404700756574 0.0012872569765096313 0.0019134404700756574 -0.0005407948353524771" pbc="T T T"
Sr       0.00003612       0.00009431      10.31845616      -0.00070577       0.00003574       0.02493250
Sr       1.57628196       0.78817596      15.31095901      -0.05809228      -0.17586834      -0.09467059
Ti       1.97047269       1.97057450      11.77514720       0.09507425       0.13551693      -0.02293707
Ti       3.54658072       2.75860075      16.75937930      -0.01574338      -0.00683553       0.00765520
O        0.00000902       1.97050521      11.86545353       0.10808403      -0.10176915       0.03280342
O        1.57656794       2.75866855      16.88717949       0.00199698       0.01322473       0.07809134
O        1.97049401       3.94093312      11.95808190      -0.07167541       0.18270748      -0.02399945
O        3.54695139       0.78819439      16.89553253       0.00191779       0.00318791       0.06318126
O        1.97043419       1.97038596       9.95735329       0.01547804       0.01862481      -0.02241719
O        3.54692153       2.75861683      14.94777755      -0.07633425      -0.06882457      -0.04263943
10
Lattice="3.940949890606662 0.0 0.0 0.0 3.940949890606662 0.0 0.0 0.0 26.940967945119528" Properties=species:S:1:pos:R:3:forces:R:3 tau=tau42 tau_p=4 tau_q=2 stage=B constraint=xy_fixed_z_free force_label=raw_dft energy=-15499.358155240132 free_energy=-15499.358155240132 stress="0.010456897079506556 4.5907880759972583e-05 0.0012909296069704291 4.5907880759972583e-05 0.010162168485027531 0.0019152767853060563 0.0012909296069704291 0.0019152767853060563 -0.0003544088394669884" pbc="T T T"
Sr       0.00003612       0.00009431      10.31915341      -0.00074279      -0.00000103       0.01806380
Sr       1.57628196       0.78817596      15.30829836      -0.05834373      -0.17637742      -0.06782133
Ti       1.97047269       1.97057450      11.77448648       0.09522055       0.13588640      -0.01630182
Ti       3.54658072       2.75860075      16.75958833      -0.01586294      -0.00680571       0.00939224
O        0.00000902       1.97050521      11.86637664       0.10867539      -0.10231988       0.02523435
O        1.57656794       2.75866855      16.88937832       0.00203426       0.01322370       0.05417726
O        1.97049401       3.94093312      11.95741669      -0.07182248       0.18314533      -0.02412312
O        3.54695139       0.78819439      16.89731433       0.00193321       0.00319999       0.04131120
O        1.97043419       1.97038596       9.95673543       0.01550298       0.01870400      -0.01638487
O        3.54692153       2.75861683      14.94657197      -0.07659471      -0.06865540      -0.02354745
10
Lattice="3.940949890606662 0.0 0.0 0.0 3.940949890606662 0.0 0.0 0.0 26.940967945119528" Properties=species:S:1:pos:R:3:forces:R:3 tau=tau42 tau_p=4 tau_q=2 stage=B constraint=xy_fixed_z_free force_label=raw_dft energy=-15499.358651031544 free_energy=-15499.358651031544 stress="0.010690109113767216 4.5907880759972583e-05 0.0012973567102768254 4.5907880759972583e-05 0.01031458264915064 0.0019180312581516547 0.0012973567102768254 0.0019180312581516547 -0.00011293338666953257" pbc="T T T"
Sr       0.00003612       0.00009431      10.32020623      -0.00080578      -0.00007739       0.00755364
Sr       1.57628196       0.78817596      15.30430740      -0.05873737      -0.17708576      -0.02817441
Ti       1.97047269       1.97057450      11.77349301       0.09545092       0.13648624      -0.00786063
Ti       3.54658072       2.75860075      16.76006557      -0.01604857      -0.00675660       0.01193686
O        0.00000902       1.97050521      11.86783586       0.10955522      -0.10314649       0.01424468
O        1.57656794       2.75866855      16.89260323       0.00208285       0.01321984       0.02070561
O        1.97049401       3.94093312      11.95612780      -0.07198935       0.18366547      -0.02250204
O        3.54695139       0.78819439      16.89982148       0.00196149       0.00320822       0.01123649
O        1.97043419       1.97038596       9.95580074       0.01552612       0.01881765      -0.00708725
O        3.54692153       2.75861683      14.94505863      -0.07699528      -0.06833092      -0.00005271
10
Lattice="3.940949890606662 0.0 0.0 0.0 3.940949890606662 0.0 0.0 0.0 26.940967945119528" Properties=species:S:1:pos:R:3:forces:R:3 tau=tau42 tau_p=4 tau_q=2 stage=B constraint=xy_fixed_z_free force_label=raw_dft energy=-15499.35876736021 free_energy=-15499.35876736021 stress="0.010854459326887918 4.498972314477313e-05 0.0013019474983528225 4.498972314477313e-05 0.010407316568285785 0.001918949415766854 0.0013019474983528225 0.001918949415766854 4.1317092683975326e-05" pbc="T T T"
Sr       0.00003612       0.00009431      10.32095146      -0.00085181      -0.00013215      -0.00047514
Sr       1.57628196       0.78817596      15.30148026      -0.05905001      -0.17751899       0.00027099
Ti       1.97047269       1.97057450      11.77274172       0.09557665       0.13689505      -0.00239421
Ti       3.54658072       2.75860075      16.76067414      -0.01618638      -0.00671521       0.01059037
O        0.00000902       1.97050521      11.86899875       0.11018488      -0.10374710       0.00624032
O        1.57656794       2.75866855      16.89482945       0.00211448       0.01321444      -0.00042577
O        1.97049401       3.94093312      11.95479512      -0.07203794       0.18387399      -0.01934395
O        3.54695139       0.78819439      16.90139984       0.00198772       0.00321131      -0.00690727
O        1.97043419       1.97038596       9.95513666       0.01553383       0.01891124      -0.00136474
O        3.54692153       2.75861683      14.94431256      -0.07727142      -0.06799257       0.01380965
