10
Lattice="3.940949890606662 0.0 0.0 0.0 3.940949890606662 0.0 0.0 0.0 26.940967945119528" Properties=species:S:1:pos:R:3:forces:R:3 tau=tau99 tau_p=9 tau_q=9 stage=A constraint=rigid_scf force_label=raw_dft energy=-15500.272077050753 free_energy=-15500.272077050753 stress="0.009421215289561573 0.0003654267308493818 -0.0067558037326375655 0.0003654267308493818 0.009130159325543348 -0.00674937662933117 -0.0067558037326375655 -0.00674937662933117 -0.0019226220462276518" pbc="T T T"
Sr       0.00003626       0.00009419      10.75260867       0.00211499       0.00219187       0.09827502
Sr       3.54675677       3.54684071      14.64522241       0.35254915       0.35295307       0.67561006
Ti       1.97047258       1.97057465      12.38212169      -0.33993995      -0.34054004      -0.15307577
Ti       1.57610567       1.57631572      16.28444791       0.04815779       0.04780606      -0.01409479
O        0.00000906       1.97050529      12.45001441      -0.90677358       0.27254722      -0.29880667
O        3.54704288       1.57638350      16.39256827       0.00998951       0.02019062      -0.03433117
O        1.97049386       3.94093294      12.44909065       0.27290100      -0.90490747      -0.29635204
O        1.57647651       3.54685924      16.37955485       0.02095423       0.01084800       0.00358669
O        1.97043435       1.97038588      10.49176941      -0.16384946      -0.16349079       0.08239769
O        1.57644656       1.57633188      14.44792112       0.70389631       0.70240147      -0.06320929
