10
Lattice="3.940949890606662 0.0 0.0 0.0 3.940949890606662 0.0 0.0 0.0 26.940967945119528" Properties=species:S:1:pos:R:3:forces:R:3 tau=tau18 tau_p=1 tau_q=8 stage=A constraint=rigid_scf force_label=raw_dft energy=-15499.601658621621 free_energy=-15499.601658621621 stress="0.008862057301905108 -0.000892449201973867 0.0055722985666454726 -0.000892449201973867 0.010955456664559857 -0.013116799690739367 0.0055722985666454726 -0.013116799690739367 -0.0067264226889511836" pbc="T T T"
Sr       0.00003626       0.00009419      10.75260867      -0.00210033      -0.00042063       0.19488473
Sr       0.39399686       3.15274573      14.64522241      -0.45223056       0.70789361       1.63980614
Ti       1.97047258       1.97057465      12.38212169       0.55379454      -0.59839238      -0.63479534
Ti       2.36429564       1.18222073      16.28444791      -0.03959396       0.12184715      -0.01629874
O        0.00000906       1.97050529      12.45001441       0.67241521       0.27625526      -0.41054810
O        0.39428297       1.18228851      16.39256827      -0.00664630       0.03950783      -0.04897643
O        1.97049386       3.94093294      12.44909065      -0.40846627      -1.64456551      -1.02302575
O        2.36466649       3.15276425      16.37955485       0.00673192       0.00456911      -0.04519794
O        1.97043435       1.97038588      10.49176941       0.12800520      -0.27044251       0.17321342
O        2.36463654       1.18223689      14.44792112      -0.45190943       1.36374783       0.17093799
