Sr Ti O
 1.0000000000000000
     3.9409498906066620    0.0000000000000000    0.0000000000000000
     0.0000000000000000    3.9409498906066620    0.0000000000000000
     0.0000000000000000    0.0000000000000000   26.9409679451195281
 Sr  Ti  O
   2   2   6
Cartesian
  0.0014386802064148 -0.0014228638812105 10.2850875469392697
  1.1642085332456602  2.7767779754594866 15.3339799398082235
  1.9976126974725286  1.9433795028609355 11.7386046070630865
  3.1366557941418143  0.8041358451795382 16.7957713780168056
 -0.0056356874211004  1.9979150558469851 11.8773306327358981
  1.2006895180229609  0.7675866358940471 16.9345788013107672
  1.9430429174068162  3.9466039363530174 11.8772894265673514
  3.1733970717944580  2.7403402748798533 16.9335797275685600
  1.9749874260353408  1.9660174701202722  9.9205404820158165
  3.1478776720951065  0.7929407907870748 14.9785574559547694
