10
Lattice="3.940949890606662 0.0 0.0 0.0 3.940949890606662 0.0 0.0 0.0 26.940967945119528" Properties=species:S:1:pos:R:3:forces:R:3 tau=tau37 tau_p=3 tau_q=7 stage=C constraint=fixed_layer_xy_centroids force_label=raw_dft projected_fmax_eV_A=0.1813664132345164 energy=-15499.343310886004 pbc="T T T"
Sr       0.00003612       0.00009431      10.28571455      -0.00011570      -0.00010104       0.00092251
Sr       1.18218697       2.75865092      15.34188727      -0.12611287       0.12596169      -0.01469128
Ti       1.97047269       1.97057450      11.73437968       0.13234702      -0.13252031      -0.00508101
Ti       3.15248573       0.78812580      16.79689174      -0.01465066       0.01545362      -0.00092920
O        0.00000902       1.97050521      11.87416207       0.15867126       0.09641457      -0.00063918
O        1.18247295       0.78819359      16.93115550       0.00275391      -0.00762563       0.02024847
O        1.97049401       3.94093312      11.87441398      -0.09658863      -0.15892631      -0.00188488
O        3.15285639       2.75866935      16.93780232       0.00773876      -0.00342677      -0.00785343
O        1.97043419       1.97038596       9.91731146       0.01874926      -0.01826640       0.00799536
O        3.15282654       0.78814187      14.98160140      -0.08279209       0.08303686       0.00191264
10
Lattice="3.940949890606662 0.0 0.0 0.0 3.940949890606662 0.0 0.0 0.0 26.940967945119528" Properties=species:S:1:pos:R:3:forces:R:3 tau=tau37 tau_p=3 tau_q=7 stage=C constraint=fixed_layer_xy_centroids force_label=raw_dft projected_fmax_eV_A=0.17551476280013914 energy=-15499.343595789194 pbc="T T T"
Sr      -0.00007070       0.00020075      10.28571685       0.00129738      -0.00151721      -0.00304624
Sr       1.18197822       2.75885912      15.34185054      -0.12437043       0.12420639      -0.01358494
Ti       1.97069702       1.97034990      11.73436698       0.13051691      -0.13069380      -0.00457425
Ti       3.15255564       0.78805773      16.79688941      -0.01655225       0.01724927       0.00360469
O        0.00029917       1.97085295      11.87416047       0.15411475       0.09264713      -0.00119453
O        1.18258637       0.78806783      16.93120612       0.00210753      -0.00715615       0.02003764
O        1.97014601       3.94064251      11.87440927      -0.09276669      -0.15431427      -0.00242918
O        3.15298227       2.75855408      16.93778269       0.00727648      -0.00279736      -0.00762795
O        1.97037453       1.97044699       9.91733145       0.02032406      -0.01981678       0.00700497
O        3.15272609       0.78824276      14.98160618      -0.08194774       0.08219251       0.00181006
10
Lattice="3.940949890606662 0.0 0.0 0.0 3.940949890606662 0.0 0.0 0.0 26.940967945119528" Properties=species:S:1:pos:R:3:forces:R:3 tau=tau37 tau_p=3 tau_q=7 stage=C constraint=fixed_layer_xy_centroids force_label=raw_dft projected_fmax_eV_A=0.16442118957289703 energy=-15499.344133622197 pbc="T T T"
Sr      -0.00028099       0.00041021      10.28571053       0.00377387      -0.00398521      -0.00321722
Sr       1.18156515       2.75927113      15.34178003      -0.12119049       0.12100691      -0.01335200
Ti       1.97114106       1.96990525      11.73434293       0.12707832      -0.12726524      -0.00275185
Ti       3.15269064       0.78792619      16.79689726      -0.01874437       0.01945168       0.00479742
O        0.00086750       1.97153920      11.87415574       0.14501382       0.08571029      -0.00120585
O        1.18281198       0.78781707      16.93130693       0.00029131      -0.00643624       0.01961135
O        1.96945930       3.94007332      11.87439833      -0.08587690      -0.14521719      -0.00239575
O        3.15323335       2.75832479      16.93774399       0.00657097      -0.00095131      -0.00749939
O        1.97025915       1.97056512       9.91736875       0.02329162      -0.02278974       0.00493240
O        3.15252747       0.78844234      14.98161547      -0.08020813       0.08047553       0.00108089
10
Lattice="3.940949890606662 0.0 0.0 0.0 3.940949890606662 0.0 0.0 0.0 26.940967945119528" Properties=species:S:1:pos:R:3:forces:R:3 tau=tau37 tau_p=3 tau_q=7 stage=C constraint=fixed_layer_xy_centroids force_label=raw_dft projected_fmax_eV_A=0.14796164324667452 energy=-15499.344867377162 pbc="T T T"
Sr      -0.00058829       0.00071629      10.28569507       0.00749451      -0.00770303      -0.00209853
Sr       1.18095497       2.75987964      15.34167603      -0.11642855       0.11622595      -0.01380142
Ti       1.97179700       1.96924836      11.73431294       0.12196285      -0.12211069       0.00017304
Ti       3.15288473       0.78773720      16.79691889      -0.02276249       0.02346877       0.00445007
O        0.00168975       1.97254670      11.87414782       0.13177007       0.07515129      -0.00101713
O        1.18314542       0.78744218      16.93145719      -0.00196741      -0.00522062       0.01877317
O        1.96845105       3.93924984      11.87438122      -0.07532098      -0.13195313      -0.00213864
O        3.15360877       2.75798587      16.93768639       0.00534250       0.00131692      -0.00748551
O        1.97009652       1.97073191       9.91741730       0.02767818      -0.02719250       0.00374147
O        3.15223470       0.78873663      14.98162712      -0.07776893       0.07801730      -0.00059650
10
Lattice="3.940949890606662 0.0 0.0 0.0 3.940949890606662 0.0 0.0 0.0 26.940967945119528" Properties=species:S:1:pos:R:3:forces:R:3 tau=tau37 tau_p=3 tau_q=7 stage=C constraint=fixed_layer_xy_centroids force_label=raw_dft projected_fmax_eV_A=0.12742898690055543 energy=-15499.345719909817 pbc="T T T"
Sr      -0.00098313       0.00110947      10.28567411       0.01262849      -0.01284575      -0.00267858
Sr       1.18015831       2.76067397      15.34153609      -0.11038774       0.11012112      -0.01335894
Ti       1.97265342       1.96839073      11.73428653       0.11508541      -0.11521165       0.00364094
Ti       3.15312642       0.78750232      16.79695330      -0.02761133       0.02834256       0.00519671
O        0.00272879       1.97384936      11.87413727       0.11500647       0.06194893      -0.00090014
O        1.18358233       0.78694368      16.93165547      -0.00497380      -0.00368722       0.01757555
O        1.96714729       3.93820923      11.87435863      -0.06211657      -0.11515791      -0.00196047
O        3.15410802       2.75754169      16.93760941       0.00381757       0.00433977      -0.00750788
O        1.96989966       1.97093430       9.91747356       0.03317649      -0.03272089       0.00102330
O        3.15185352       0.78911986      14.98163560      -0.07462498       0.07487078      -0.00102998
10
Lattice="3.940949890606662 0.0 0.0 0.0 3.940949890606662 0.0 0.0 0.0 26.940967945119528" Properties=species:S:1:pos:R:3:forces:R:3 tau=tau37 tau_p=3 tau_q=7 stage=C constraint=fixed_layer_xy_centroids force_label=raw_dft projected_fmax_eV_A=0.1030900992798803 energy=-15499.34660496008 pbc="T T T"
Sr      -0.00145145       0.00157565      10.28564521       0.01840113      -0.01861890      -0.00199492
Sr       1.17918771       2.76164131      15.34136006      -0.10239778       0.10212165      -0.01306223
Ti       1.97369542       1.96734733      11.73427641       0.10663496      -0.10677714       0.00625189
Ti       3.15340073       0.78723674      16.79700375      -0.03279571       0.03359455       0.00555461
O        0.00393484       1.97541452      11.87412441       0.09474721       0.04609679      -0.00090734
O        1.18411723       0.78632072      16.93189982      -0.00884022      -0.00157197       0.01633653
O        1.96558067       3.93700136      11.87433095      -0.04626803      -0.09487525      -0.00187793
O        3.15473198       2.75699772      16.93751198       0.00169873       0.00818973      -0.00729139
O        1.96968656       1.97115424       9.91752802       0.03939110      -0.03896224      -0.00080398
O        3.15139095       0.78958503      14.98163937      -0.07057138       0.07080304      -0.00220549
10
Lattice="3.940949890606662 0.0 0.0 0.0 3.940949890606662 0.0 0.0 0.0 26.940967945119528" Properties=species:S:1:pos:R:3:forces:R:3 tau=tau37 tau_p=3 tau_q=7 stage=C constraint=fixed_layer_xy_centroids force_label=raw_dft projected_fmax_eV_A=0.07827355333029129 energy=-15499.347435995742 pbc="T T T"
Sr      -0.00197610       0.00209763      10.28561068       0.02495513      -0.02515824      -0.00094925
Sr       1.17805898       2.76276573      15.34114590      -0.09356219       0.09327654      -0.01378523
Ti       1.97490648       1.96613460      11.73429397       0.09771066      -0.09783433       0.00873635
Ti       3.15368935       0.78695917      16.79707285      -0.04053576       0.04119756       0.00409371
O        0.00524283       1.97720168      11.87410896       0.07275425       0.02809830      -0.00034813
O        1.18474258       0.78557150      16.93218942      -0.01262926       0.00091428       0.01458098
O        1.96379166       3.93569137      11.87429803      -0.02827108      -0.07280387      -0.00122770
O        3.15548245       2.75636124      16.93739319      -0.00081170       0.01207544      -0.00734641
O        1.96948116       1.97136782       9.91757361       0.04663056      -0.04622818      -0.00030468
O        3.15085523       0.79012389      14.98163335      -0.06624062       0.06646250      -0.00344965
10
Lattice="3.940949890606662 0.0 0.0 0.0 3.940949890606662 0.0 0.0 0.0 26.940967945119528" Properties=species:S:1:pos:R:3:forces:R:3 tau=tau37 tau_p=3 tau_q=7 stage=C constraint=fixed_layer_xy_centroids force_label=raw_dft projected_fmax_eV_A=0.0650205090328068 energy=-15499.348142131154 pbc="T T T"
Sr      -0.00253673       0.00265500      10.28557489       0.03219150      -0.03240747      -0.00172110
Sr       1.17679068       2.76402859      15.34088466      -0.08415658       0.08385884      -0.01290874
Ti       1.97626949       1.96476961      11.73435319       0.08829348      -0.08839787       0.00909245
Ti       3.15396014       0.78670147      16.79715539      -0.04747233       0.04824727       0.00392196
O        0.00656908       1.97916233      11.87409333       0.04932379       0.00951154       0.00023706
O        1.18545509       0.78468914      16.93252252      -0.01694151       0.00395307       0.01289974
O        1.96182863       3.93436323      11.87426229      -0.00969949      -0.04934461      -0.00057284
O        3.15636628       2.75563581      16.93724978      -0.00392119       0.01642318      -0.00693169
O        1.96931556       1.97154293       9.91761313       0.05390626      -0.05355608      -0.00083869
O        3.15025639       0.79072651      14.98161079      -0.06152393       0.06171213      -0.00317814
10
Lattice="3.940949890606662 0.0 0.0 0.0 3.940949890606662 0.0 0.0 0.0 26.940967945119528" Properties=species:S:1:pos:R:3:forces:R:3 tau=tau37 tau_p=3 tau_q=7 stage=C constraint=fixed_layer_xy_centroids force_label=raw_dft projected_fmax_eV_A=0.050047823617956906 energy=-15499.348723366313 pbc="T T T"
Sr      -0.00316379       0.00327761      10.28552777       0.04035192      -0.04056429      -0.00215201
Sr       1.17525434       2.76555728      15.34053841      -0.07283472       0.07254676      -0.01215103
Ti       1.97792768       1.96310900      11.73447353       0.07779387      -0.07785660       0.00856666
Ti       3.15419653       0.78648307      16.79726372      -0.05664603       0.05730552       0.00212682
O        0.00792634       1.98145875      11.87407946       0.02384672      -0.01126040       0.00124339
O        1.18633603       0.78355164      16.93293986      -0.02180964       0.00778067       0.01091305
O        1.95952882       3.93300420      11.87422303       0.01115679      -0.02380430       0.00059778
O        3.15750523       2.75473831      16.93706074      -0.00778967       0.02138669      -0.00642287
O        1.96922698       1.97164354       9.91764656       0.06161623      -0.06133264       0.00025274
O        3.14953646       0.79145122      14.98156689      -0.05568521       0.05579911      -0.00297451
10
Lattice="3.940949890606662 0.0 0.0 0.0 3.940949890606662 0.0 0.0 0.0 26.940967945119528" Properties=species:S:1:pos:R:3:forces:R:3 tau=tau37 tau_p=3 tau_q=7 stage=C constraint=fixed_layer_xy_centroids force_label=raw_dft projected_fmax_eV_A=0.04609861315713757 energy=-15499.349114938126 pbc="T T T"
Sr      -0.00380908       0.00391665      10.28546137       0.04894455      -0.04914047      -0.00351393
Sr       1.17345813       2.76734318      15.34008399      -0.06005634       0.05984500      -0.01115576
Ti       1.97989006       1.96114374      11.73467123       0.06624653      -0.06628201       0.00544123
Ti       3.15430546       0.78639790      16.79739056      -0.06631569       0.06688776       0.00058621
O        0.00909660       1.98402496      11.87407710      -0.00183243      -0.03313638       0.00249654
O        1.18740269       0.78210218      16.93345338      -0.02663431       0.01284626       0.00869753
O        1.95695841       3.93183266      11.87418959       0.03297825       0.00189028       0.00195172
O        3.15895594       2.75365127      16.93681459      -0.01292905       0.02635535      -0.00548416
O        1.96931005       1.97157509       9.91768201       0.06885286      -0.06860629       0.00274722
O        3.14870638       0.79228699      14.98149614      -0.04925411       0.04934050      -0.00176660
10
Lattice="3.940949890606662 0.0 0.0 0.0 3.940949890606662 0.0 0.0 0.0 26.940967945119528" Properties=species:S:1:pos:R:3:forces:R:3 tau=tau37 tau_p=3 tau_q=7 stage=C constraint=fixed_layer_xy_centroids force_label=raw_dft projected_fmax_eV_A=0.06783875450656868 energy=-15499.349326098465 pbc="T T T"
Sr      -0.00438526       0.00448467      10.28535738       0.05711063      -0.05730140      -0.00352755
Sr       1.17149132       2.76929728      15.33951211      -0.04659225       0.04654082      -0.00994271
Ti       1.98208888       1.95894186      11.73492642       0.05532963      -0.05533554       0.00323239
Ti       3.15416102       0.78657193      16.79752277      -0.07552307       0.07596324      -0.00230062
O        0.00977097       1.98667872      11.87410184      -0.02382230      -0.05303389       0.00385820
O        1.18863897       0.78033634      16.93405724      -0.03140114       0.01921925       0.00524017
O        1.95429894       3.93115784      11.87417758       0.05288579       0.02393646       0.00341263
O        3.16072194       2.75239157      16.93651087      -0.01945502       0.03130035      -0.00506533
O        1.96967250       1.97123000       9.91774698       0.07396807      -0.07379143       0.00649229
O        3.14781534       0.79318441      14.98140679      -0.04250059       0.04250239      -0.00139919
10
Lattice="3.940949890606662 0.0 0.0 0.0 3.940949890606662 0.0 0.0 0.0 26.940967945119528" Properties=species:S:1:pos:R:3:forces:R:3 tau=tau37 tau_p=3 tau_q=7 stage=C constraint=fixed_layer_xy_centroids force_label=raw_dft projected_fmax_eV_A=0.08558752799762467 energy=-15499.349457257336 pbc="T T T"
Sr      -0.00480185       0.00489117      10.28521489       0.06400658      -0.06417602      -0.00350724
Sr       1.16949890       2.77127638      15.33883363      -0.03432191       0.03449212      -0.00936833
Ti       1.98440882       1.95661894      11.73521579       0.04661153      -0.04660664       0.00181674
Ti       3.15365730       0.78710981      16.79762853      -0.08418923       0.08443220      -0.00394356
O        0.00969741       1.98920432      11.87416927      -0.03829478      -0.06827436       0.00539932
O        1.18999682       0.77831703      16.93471526      -0.03503591       0.02642914       0.00193347
O        1.95176615       3.93123234      11.87420357       0.06816534       0.03843259       0.00522165
O        3.16273866       2.75100921      16.93615292      -0.02685080       0.03515649      -0.00408471
O        1.97037549       1.97054633       9.91788363       0.07597378      -0.07584754       0.00840622
O        3.14693690       0.79406909      14.98130249      -0.03606435       0.03596202      -0.00187382
10
Lattice="3.940949890606662 0.0 0.0 0.0 3.940949890606662 0.0 0.0 0.0 26.940967945119528" Properties=species:S:1:pos:R:3:forces:R:3 tau=tau37 tau_p=3 tau_q=7 stage=C constraint=fixed_layer_xy_centroids force_label=raw_dft projected_fmax_eV_A=0.09278407813698673 energy=-15499.349659301859 pbc="T T T"
Sr      -0.00498001       0.00505738      10.28503324       0.06888165      -0.06902692      -0.00196329
Sr       1.16762000       2.77314395      15.33805222      -0.02374774       0.02422313      -0.00649538
Ti       1.98675345       1.95427144      11.73552423       0.04023468      -0.04023185       0.00190005
Ti       3.15269035       0.78811348      16.79768874      -0.09038893       0.09037299      -0.00486864
O        0.00869446       1.99143092      11.87429786      -0.04274793      -0.07694952       0.00575670
O        1.19144108       0.77611696      16.93539158      -0.03757539       0.03433451      -0.00222838
O        1.94953118       3.93223782      11.87428892       0.07689295       0.04291763       0.00578781
O        3.16493133       2.74954193      16.93575044      -0.03495955       0.03796208      -0.00363528
O        1.97144696       1.96949555       9.91811532       0.07392590      -0.07386522       0.00848258
O        3.14614582       0.79486520      14.98117743      -0.03051565       0.03026291      -0.00273617
10
Lattice="3.940949890606662 0.0 0.0 0.0 3.940949890606662 0.0 0.0 0.0 26.940967945119528" Properties=species:S:1:pos:R:3:forces:R:3 tau=tau37 tau_p=3 tau_q=7 stage=C constraint=fixed_layer_xy_centroids force_label=raw_dft projected_fmax_eV_A=0.08631159828433496 energy=-15499.350048968876 pbc="T T T"
Sr      -0.00484060       0.00490419      10.28482799       0.07142267      -0.07152912      -0.00056796
Sr       1.16599487       2.77476380      15.33719356      -0.01677516       0.01757940      -0.00322365
Ti       1.98904739       1.95197458      11.73585490       0.03664645      -0.03661354       0.00423178
Ti       3.15114337       0.78969689      16.79768807      -0.09295309       0.09262091      -0.00402943
O        0.00662322       1.99323000      11.87449752      -0.03538275      -0.07771776       0.00536178
O        1.19295166       0.77381379      16.93603704      -0.03823539       0.04218640      -0.00595596
O        1.94772298       3.93431361      11.87444592       0.07770825       0.03554242       0.00561786
O        3.16721944       2.74801334      16.93530457      -0.04296056       0.03885965      -0.00281099
O        1.97289303       1.96807074       9.91845153       0.06725106      -0.06725209       0.00586109
O        3.14551924       0.79549371      14.98101888      -0.02672096       0.02632373      -0.00448478
10
Lattice="3.940949890606662 0.0 0.0 0.0 3.940949890606662 0.0 0.0 0.0 26.940967945119528" Properties=species:S:1:pos:R:3:forces:R:3 tau=tau37 tau_p=3 tau_q=7 stage=C constraint=fixed_layer_xy_centroids force_label=raw_dft projected_fmax_eV_A=0.06672331437056873 energy=-15499.350624217534 pbc="T T T"
Sr      -0.00429727       0.00434536      10.28461523       0.07011527      -0.07016541       0.00052553
Sr       1.16476343       2.77600187      15.33629122      -0.01420072       0.01526130       0.00057618
Ti       1.99123337       1.94978594      11.73624574       0.03649732      -0.03648627       0.00641542
Ti       3.14888533       0.79198664      16.79762899      -0.09086356       0.09024418      -0.00328870
O        0.00341526       1.99452676      11.87477420      -0.01442415      -0.06926475       0.00564357
O        1.19453360       0.77149957      16.93659385      -0.03754453       0.04913944      -0.00934107
O        1.94641678       3.93752820      11.87468382       0.06931694       0.01453547       0.00605238
O        3.16950764       2.74642270      16.93481953      -0.04986372       0.03833643      -0.00195687
O        1.97467788       1.96630683       9.91887152       0.05569575      -0.05573457       0.00054302
O        3.14513859       0.79587074      14.98079587      -0.02472861       0.02413417      -0.00516920
10
Lattice="3.940949890606662 0.0 0.0 0.0 3.940949890606662 0.0 0.0 0.0 26.940967945119528" Properties=species:S:1:pos:R:3:forces:R:3 tau=tau37 tau_p=3 tau_q=7 stage=C constraint=fixed_layer_xy_centroids force_label=raw_dft projected_fmax_eV_A=0.05595358490030595 energy=-15499.351216881474 pbc="T T T"
Sr      -0.00327155       0.00330297      10.28441255       0.06425881      -0.06425932       0.00207797
Sr       1.16406537       2.77672607      15.33540160      -0.01726213       0.01850294       0.00448246
Ti       1.99328792       1.94772865      11.73675195       0.04133383      -0.04135439       0.00716232
Ti       3.14577294       0.79511973      16.79751041      -0.08339065       0.08251930      -0.00454494
O       -0.00083400       1.99535159      11.87515253       0.01844227      -0.05346146       0.00566825
O        1.19621847       0.76929487      16.93697984      -0.03571802       0.05492082      -0.01197260
O        1.94558317       3.94178578      11.87503087       0.05360030      -0.01836616       0.00618813
O        3.17167357       2.74474384      16.93430023      -0.05552632       0.03654926      -0.00079293
O        1.97668049       1.96432412       9.91930030       0.04004596      -0.04010510      -0.00324627
O        3.14509824       0.79589701      14.98047969      -0.02578405       0.02505463      -0.00502239
10
Lattice="3.940949890606662 0.0 0.0 0.0 3.940949890606662 0.0 0.0 0.0 26.940967945119528" Properties=species:S:1:pos:R:3:forces:R:3 tau=tau37 tau_p=3 tau_q=7 stage=C constraint=fixed_layer_xy_centroids force_label=raw_dft projected_fmax_eV_A=0.03452536499827565 energy=-15499.351531717184 pbc="T T T"
Sr      -0.00173380       0.00174790      10.28426166       0.05620072      -0.05613104       0.00360931
Sr       1.16401950       2.77682946      15.33462441      -0.02795021       0.02907686       0.00520648
Ti       1.99528480       1.94572785      11.73743490       0.04704630      -0.04708024       0.00189722
Ti       3.14167753       0.79921488      16.79727937      -0.06820700       0.06722561      -0.00575104
O       -0.00569877       1.99592854      11.87567077       0.05898368      -0.03338680       0.00664116
O        1.19809457       0.76737629      16.93706855      -0.03455511       0.05775160      -0.01285012
O        1.94500022       3.94666008      11.87553077       0.03359455      -0.05897211       0.00724125
O        3.17353909       2.74289501      16.93376206      -0.05789353       0.03521460       0.00089397
O        1.97859358       1.96242874       9.91964799       0.02250307      -0.02259048      -0.00252200
O        3.14549790       0.79546588      14.98003950      -0.02972298       0.02889174      -0.00436625
10
Lattice="3.940949890606662 0.0 0.0 0.0 3.940949890606662 0.0 0.0 0.0 26.940967945119528" Properties=species:S:1:pos:R:3:forces:R:3 tau=tau37 tau_p=3 tau_q=7 stage=C constraint=fixed_layer_xy_centroids force_label=raw_dft projected_fmax_eV_A=0.05597371496182911 energy=-15499.351423007703 pbc="T T T"
Sr       0.00021076      -0.00021281      10.28422820       0.04675988      -0.04664084       0.00395924
Sr       1.16448463       2.77645956      15.33401688      -0.04423300       0.04486215       0.00368233
Ti       1.99739062       1.94361591      11.73817920       0.05096389      -0.05099269      -0.00353347
Ti       3.13678618       0.80407515      16.79686145      -0.04580883       0.04501950      -0.00745697
O       -0.01006312       1.99683833      11.87640469       0.09340406      -0.01882767       0.00668281
O        1.20026597       0.76591772      16.93673940      -0.03707145       0.05645911      -0.01177025
O        1.94409011       3.95103324      11.87626586       0.01905033      -0.09345034       0.00729036
O        3.17494110       2.74077340      16.93325321      -0.05583125       0.03720823       0.00265518
O        1.97981767       1.96121843       9.91991350       0.00891993      -0.00902637       0.00176403
O        3.14635070       0.79455569      14.97945757      -0.03615408       0.03538892      -0.00327379
10
Lattice="3.940949890606662 0.0 0.0 0.0 3.940949890606662 0.0 0.0 0.0 26.940967945119528" Properties=species:S:1:pos:R:3:forces:R:3 tau=tau37 tau_p=3 tau_q=7 stage=C constraint=fixed_layer_xy_centroids force_label=raw_dft projected_fmax_eV_A=0.053124580216555285 energy=-15499.351462328155 pbc="T T T"
Sr       0.00022312      -0.00022480      10.28424485       0.04691106      -0.04678714       0.00354684
Sr       1.16448290       2.77646408      15.33403237      -0.04427388       0.04484467       0.00348487
Ti       1.99742066       1.94358561      11.73816434       0.05008226      -0.05011491      -0.00309767
Ti       3.13677782       0.80408033      16.79683010      -0.04503673       0.04428674      -0.00652083
O       -0.00985464       1.99694328      11.87643279       0.09093015      -0.02039013       0.00660156
O        1.20029434       0.76597100      16.93668991      -0.03739335       0.05608990      -0.01158693
O        1.94398596       3.95082443      11.87629652       0.02061125      -0.09096743       0.00717646
O        3.17489060       2.74074573      16.93326438      -0.05547258       0.03753451       0.00261096
O        1.97967093       1.96136459       9.91992092       0.00991854      -0.01003682       0.00112743
O        3.14638293       0.79452038      14.97944381      -0.03627647       0.03554036      -0.00334269
10
Lattice="3.940949890606662 0.0 0.0 0.0 3.940949890606662 0.0 0.0 0.0 26.940967945119528" Properties=species:S:1:pos:R:3:forces:R:3 tau=tau37 tau_p=3 tau_q=7 stage=C constraint=fixed_layer_xy_centroids force_label=raw_dft projected_fmax_eV_A=0.046523573762659844 energy=-15499.351533349869 pbc="T T T"
Sr       0.00024920      -0.00025013      10.28427631       0.04753867      -0.04741706       0.00322699
Sr       1.16447862       2.77647365      15.33406249      -0.04446337       0.04497425       0.00284595
Ti       1.99747739       1.94352836      11.73813658       0.04899983      -0.04905176      -0.00130432
Ti       3.13676404       0.80408791      16.79677159      -0.04484672       0.04417567      -0.00578498
O       -0.00944756       1.99714582      11.87648874       0.08542696      -0.02409844       0.00599427
O        1.20034913       0.76607670      16.93659154      -0.03830429       0.05518359      -0.01095161
O        1.94378502       3.95041674      11.87635744       0.02430772      -0.08545421       0.00654603
O        3.17479041       2.74069238      16.93328656      -0.05458478       0.03840071       0.00274157
O        1.97938198       1.96165232       9.91993283       0.01224745      -0.01236135       0.00070500
O        3.14644638       0.79445088      14.97941589      -0.03632120       0.03564886      -0.00401838
10
Lattice="3.940949890606662 0.0 0.0 0.0 3.940949890606662 0.0 0.0 0.0 26.940967945119528" Properties=species:S:1:pos:R:3:forces:R:3 tau=tau37 tau_p=3 tau_q=7 stage=C constraint=fixed_layer_xy_centroids force_label=raw_dft projected_fmax_eV_A=0.0397477458111377 energy=-15499.351622603208 pbc="T T T"
Sr       0.00029249      -0.00029225      10.28432129       0.04817219      -0.04806549       0.00406877
Sr       1.16447085       2.77648897      15.33410430      -0.04456365       0.04499611       0.00220112
Ti       1.99755580       1.94344906      11.73810486       0.04736461      -0.04739032       0.00083201
Ti       3.13674573       0.80409731      16.79668905      -0.04468937       0.04403220      -0.00490129
O       -0.00886565       1.99742925      11.87657007       0.07809649      -0.02914217       0.00480976
O        1.20042634       0.76623127      16.93644644      -0.03945049       0.05391012      -0.01074387
O        1.94350397       3.94983399      11.87644609       0.02933680      -0.07810394       0.00534764
O        3.17464404       2.74061711      16.93332068      -0.05330900       0.03952300       0.00220215
O        1.97895942       1.96207305       9.91994720       0.01552792      -0.01563231       0.00055176
O        3.14654163       0.79434686      14.97937001      -0.03648550       0.03587255      -0.00436805
10
Lattice="3.940949890606662 0.0 0.0 0.0 3.940949890606662 0.0 0.0 0.0 26.940967945119528" Properties=species:S:1:pos:R:3:forces:R:3 tau=tau37 tau_p=3 tau_q=7 stage=C constraint=fixed_layer_xy_centroids force_label=raw_dft projected_fmax_eV_A=0.03389964165487898 energy=-15499.351713489226 pbc="T T T"
Sr       0.00035756      -0.00035583      10.28438552       0.04902297      -0.04892321       0.00310152
Sr       1.16445882       2.77651051      15.33415478      -0.04470866       0.04499328       0.00136603
Ti       1.99764776       1.94335596      11.73808116       0.04558155      -0.04561086       0.00270891
Ti       3.13672348       0.80410790      16.79658615      -0.04457213       0.04411910      -0.00391270
O       -0.00814116       1.99776912      11.87667134       0.06887703      -0.03530510       0.00390525
O        1.20052062       0.76643017      16.93625313      -0.04092605       0.05228878      -0.00998771
O        1.94316719       3.94910851      11.87655709       0.03546631      -0.06888037       0.00438733
O        3.17445621       2.74052519      16.93336424      -0.05170797       0.04091705       0.00191496
O        1.97841468       1.96261534       9.91996335       0.01969902      -0.01981318       0.00091377
O        3.14666946       0.79420775      14.97930322      -0.03673181       0.03621450      -0.00439684
10
Lattice="3.940949890606662 0.0 0.0 0.0 3.940949890606662 0.0 0.0 0.0 26.940967945119528" Properties=species:S:1:pos:R:3:forces:R:3 tau=tau37 tau_p=3 tau_q=7 stage=C constraint=fixed_layer_xy_centroids force_label=raw_dft projected_fmax_eV_A=0.027383476959453004 energy=-15499.351790361387 pbc="T T T"
Sr       0.00045225      -0.00044866      10.28446451       0.04981538      -0.04970508       0.00332418
Sr       1.16444130       2.77653869      15.33420954      -0.04491023       0.04504238      -0.00022883
Ti       1.99774317       1.94325917      11.73807833       0.04349792      -0.04354035       0.00411711
Ti       3.13669770       0.80412025      16.79646683      -0.04430576       0.04399389      -0.00323496
O       -0.00731744       1.99813235      11.87678914       0.05874945      -0.04213807       0.00305936
O        1.20062462       0.76666777      16.93601098      -0.04256564       0.05043013      -0.00909656
O        1.94280768       3.94828372      11.87668694       0.04227614      -0.05872605       0.00347536
O        3.17423270       2.74042341      16.93341652      -0.04987452       0.04248979       0.00162699
O        1.97776037       1.96326652       9.91998412       0.02431775      -0.02443756       0.00125033
O        3.14683227       0.79403141      14.97921309      -0.03700075       0.03659091      -0.00429297
10
Lattice="3.940949890606662 0.0 0.0 0.0 3.940949890606662 0.0 0.0 0.0 26.940967945119528" Properties=species:S:1:pos:R:3:forces:R:3 tau=tau37 tau_p=3 tau_q=7 stage=C constraint=fixed_layer_xy_centroids force_label=raw_dft projected_fmax_eV_A=0.0200277600336359 energy=-15499.35184287936 pbc="T T T"
Sr       0.00058838      -0.00058238      10.28456341       0.05033500      -0.05024064       0.00348436
Sr       1.16441567       2.77657520      15.33425691      -0.04512955       0.04512286      -0.00160180
Ti       1.99782709       1.94317347      11.73811023       0.04154748      -0.04160842       0.00518206
Ti       3.13666969       0.80413374      16.79633238      -0.04402294       0.04386868      -0.00325399
O       -0.00645045       1.99847241      11.87692076       0.04792562      -0.04916515       0.00222529
O        1.20072797       0.76693784      16.93571693      -0.04425408       0.04834600      -0.00799279
O        1.94247195       3.94741578      11.87683288       0.04928136      -0.04788088       0.00257187
O        3.17398014       2.74032160      16.93347718      -0.04783692       0.04410445       0.00122230
O        1.97700907       1.96401382       9.92001327       0.02963196      -0.02974381       0.00253022
O        3.14703512       0.79381314      14.97909606      -0.03747769       0.03719692      -0.00436728
10
Lattice="3.940949890606662 0.0 0.0 0.0 3.940949890606662 0.0 0.0 0.0 26.940967945119528" Properties=species:S:1:pos:R:3:forces:R:3 tau=tau37 tau_p=3 tau_q=7 stage=C constraint=fixed_layer_xy_centroids force_label=raw_dft projected_fmax_eV_A=0.01346678945260377 energy=-15499.351868866232 pbc="T T T"
Sr       0.00077954      -0.00077055      10.28468870       0.05066873      -0.05059674       0.00395821
Sr       1.16437818       2.77662259      15.33428285      -0.04541262       0.04519742      -0.00323188
Ti       1.99787973       1.94311842      11.73819291       0.03997834      -0.04003002       0.00537489
Ti       3.13664158       0.80414735      16.79617748      -0.04362596       0.04367533      -0.00352215
O       -0.00562660       1.99872183      11.87706239       0.03782607      -0.05548929       0.00130741
O        1.20081567       0.76722900      16.93536904      -0.04590576       0.04630685      -0.00721991
O        1.94222745       3.94659138      11.87699101       0.05556334      -0.03774919       0.00159254
O        3.17371021       2.74023390      16.93354451      -0.04587234       0.04566793       0.00026122
O        1.97618591       1.96483202       9.92006586       0.03486005      -0.03496058       0.00492752
O        3.14728294       0.79354868      14.97894524      -0.03807984       0.03797828      -0.00344811
10
Lattice="3.940949890606662 0.0 0.0 0.0 3.940949890606662 0.0 0.0 0.0 26.940967945119528" Properties=species:S:1:pos:R:3:forces:R:3 tau=tau37 tau_p=3 tau_q=7 stage=C constraint=fixed_layer_xy_centroids force_label=raw_dft projected_fmax_eV_A=0.022240523622665355 energy=-15499.351876621475 pbc="T T T"
Sr       0.00105141      -0.00103878      10.28486022       0.05045944      -0.05039182       0.00413408
Sr       1.16432147       2.77668668      15.33426978      -0.04563862       0.04524447      -0.00554895
Ti       1.99788627       1.94310871      11.73833922       0.03902343      -0.03903860       0.00469586
Ti       3.13661559       0.80415975      16.79598189      -0.04322539       0.04348532      -0.00446858
O       -0.00488240       1.99882815      11.87721828       0.02926455      -0.06041835       0.00191033
O        1.20087700       0.76754774      16.93493804      -0.04713835       0.04441272      -0.00589425
O        1.94212673       3.94584737      11.87716666       0.06046566      -0.02920079       0.00206871
O        3.17341788       2.74016989      16.93361430      -0.04408259       0.04681156      -0.00020697
O        1.97526402       1.96574764       9.92017702       0.03990069      -0.03999120       0.00671855
O        3.14759664       0.79321746      14.97875458      -0.03902909       0.03908668      -0.00340877
10
Lattice="3.940949890606662 0.0 0.0 0.0 3.940949890606662 0.0 0.0 0.0 26.940967945119528" Properties=species:S:1:pos:R:3:forces:R:3 tau=tau37 tau_p=3 tau_q=7 stage=C constraint=fixed_layer_xy_centroids force_label=raw_dft projected_fmax_eV_A=0.021990066664252392 energy=-15499.35187825416 pbc="T T T"
Sr       0.00105985      -0.00104715      10.28486548       0.05050161      -0.05043013       0.00231528
Sr       1.16431916       2.77668851      15.33426272      -0.04555635       0.04519845      -0.00401863
Ti       1.99788016       1.94311478      11.73834519       0.03869433      -0.03872313       0.00345582
Ti       3.13661635       0.80415934      16.79597621      -0.04338145       0.04356349      -0.00229137
O       -0.00490091       1.99880703      11.87722071       0.02949107      -0.06033145       0.00127655
O        1.20087278       0.76754850      16.93493054      -0.04715995       0.04418852      -0.00531318
O        1.94214790       3.94586595      11.87716929       0.06039136      -0.02941985       0.00142979
O        3.17341755       2.74017371      16.93361404      -0.04385839       0.04687250      -0.00011981
O        1.97525904       1.96575250       9.92018557       0.03995571      -0.04004030       0.00588628
O        3.14760274       0.79321146      14.97875025      -0.03907794       0.03912165      -0.00262073
10
Lattice="3.940949890606662 0.0 0.0 0.0 3.940949890606662 0.0 0.0 0.0 26.940967945119528" Properties=species:S:1:pos:R:3:forces:R:3 tau=tau37 tau_p=3 tau_q=7 stage=C constraint=fixed_layer_xy_centroids force_label=raw_dft projected_fmax_eV_A=0.02122918996823849 energy=-15499.35188165558 pbc="T T T"
Sr       0.00107684      -0.00106401      10.28487346       0.05036765      -0.05030132       0.00434182
Sr       1.16431463       2.77669213      15.33425073      -0.04568182       0.04530181      -0.00600018
Ti       1.99786749       1.94312735      11.73835542       0.03898204      -0.03902060       0.00453465
Ti       3.13661763       0.80415865      16.79596788      -0.04308038       0.04334931      -0.00396721
O       -0.00493767       1.99876480      11.87722469       0.03003023      -0.05972750       0.00190159
O        1.20086428       0.76754976      16.93491634      -0.04711135       0.04424123      -0.00555538
O        1.94219023       3.94590283      11.87717367       0.05977481      -0.02996852       0.00208234
O        3.17341718       2.74018148      16.93361363      -0.04393218       0.04682982      -0.00025248
O        1.97524914       1.96576213       9.92020152       0.03981199      -0.03991432       0.00660619
O        3.14761486       0.79319950      14.97874267      -0.03916124       0.03921009      -0.00369133
10
Lattice="3.940949890606662 0.0 0.0 0.0 3.940949890606662 0.0 0.0 0.0 26.940967945119528" Properties=species:S:1:pos:R:3:forces:R:3 tau=tau37 tau_p=3 tau_q=7 stage=C constraint=fixed_layer_xy_centroids force_label=raw_dft projected_fmax_eV_A=0.020196407042787835 energy=-15499.351886689688 pbc="T T T"
Sr       0.00110220      -0.00108915      10.28488729       0.05021236      -0.05014422       0.00345119
Sr       1.16430766       2.77669771      15.33423075      -0.04555815       0.04520796      -0.00453363
Ti       1.99784873       1.94314595      11.73837156       0.03915276      -0.03918515       0.00442281
Ti       3.13661988       0.80415737      16.79595431      -0.04337734       0.04360102      -0.00341571
O       -0.00499182       1.99870239      11.87723118       0.03085787      -0.05911172       0.00157917
O        1.20085155       0.76755158      16.93489505      -0.04679819       0.04430448      -0.00565051
O        1.94225278       3.94595718      11.87718079       0.05916468      -0.03079719       0.00176455
O        3.17341664       2.74019313      16.93361288      -0.04402037       0.04654108      -0.00054070
O        1.97523414       1.96577672       9.92022599       0.03969938      -0.03979425       0.00631489
O        3.14763287       0.79318174      14.97873019      -0.03933299       0.03937850      -0.00339206
10
Lattice="3.940949890606662 0.0 0.0 0.0 3.940949890606662 0.0 0.0 0.0 26.940967945119528" Properties=species:S:1:pos:R:3:forces:R:3 tau=tau37 tau_p=3 tau_q=7 stage=C constraint=fixed_layer_xy_centroids force_label=raw_dft projected_fmax_eV_A=0.019263372691703397 energy=-15499.351892676192 pbc="T T T"
Sr       0.00113575      -0.00112241      10.28490553       0.04990280      -0.04983569       0.00216744
Sr       1.16429846       2.77670509      15.33420517      -0.04567693       0.04531904      -0.00335272
Ti       1.99782401       1.94317046      11.73839351       0.03944047      -0.03944921       0.00347870
Ti       3.13662264       0.80415586      16.79593636      -0.04290297       0.04320070      -0.00238341
O       -0.00506230       1.99862054      11.87723967       0.03162328      -0.05851368       0.00168999
O        1.20083509       0.76755406      16.93486641      -0.04695220       0.04432170      -0.00571788
O        1.94233484       3.94602793      11.87719016       0.05857230      -0.03157083       0.00187279
O        3.17341581       2.74020820      16.93361130      -0.04405894       0.04662516      -0.00051062
O        1.97521373       1.96579659       9.92025861       0.03935588      -0.03946155       0.00458890
O        3.14765659       0.79315832      14.97871328      -0.03930368       0.03936410      -0.00183294
10
Lattice="3.940949890606662 0.0 0.0 0.0 3.940949890606662 0.0 0.0 0.0 26.940967945119528" Properties=species:S:1:pos:R:3:forces:R:3 tau=tau37 tau_p=3 tau_q=7 stage=C constraint=fixed_layer_xy_centroids force_label=raw_dft projected_fmax_eV_A=0.017399981074348318 energy=-15499.35189988721 pbc="T T T"
Sr       0.00117721      -0.00116351      10.28492592       0.04959709      -0.04955570       0.00337689
Sr       1.16428670       2.77671458      15.33417597      -0.04534526       0.04501333      -0.00353707
Ti       1.99779379       1.94320045      11.73841967       0.03958393      -0.03963253       0.00336712
Ti       3.13662673       0.80415347      16.79591583      -0.04322359       0.04346938      -0.00250683
O       -0.00514808       1.99851976      11.87725042       0.03302505      -0.05727415       0.00142053
O        1.20081444       0.76755731      16.93483012      -0.04658916       0.04443432      -0.00557441
O        1.94243589       3.94611402      11.87720204       0.05731632      -0.03297131       0.00160745
O        3.17341454       2.74022702      16.93360893      -0.04416744       0.04632434      -0.00054636
O        1.97518723       1.96582239       9.92029640       0.03929031      -0.03938364       0.00550730
O        3.14768618       0.79312915      14.97869468      -0.03948777       0.03957571      -0.00311438
10
Lattice="3.940949890606662 0.0 0.0 0.0 3.940949890606662 0.0 0.0 0.0 26.940967945119528" Properties=species:S:1:pos:R:3:forces:R:3 tau=tau37 tau_p=3 tau_q=7 stage=C constraint=fixed_layer_xy_centroids force_label=raw_dft projected_fmax_eV_A=0.015461119143489636 energy=-15499.351907506396 pbc="T T T"
Sr       0.00122627      -0.00121216      10.28495108       0.04930630      -0.04926439       0.00406569
Sr       1.16427292       2.77672564      15.33414258      -0.04557486       0.04528407      -0.00459302
Ti       1.99775817       1.94323575      11.73844998       0.04014598      -0.04020460       0.00517383
Ti       3.13663150       0.80415073      16.79589230      -0.04306341       0.04331306      -0.00394639
O       -0.00524690       1.99840185      11.87726296       0.03454971      -0.05585465       0.00195224
O        1.20079017       0.76756158      16.93478624      -0.04629400       0.04454745      -0.00595056
O        1.94255412       3.94621324      11.87721597       0.05596572      -0.03446949       0.00204454
O        3.17341259       2.74024912      16.93360570      -0.04434125       0.04604357      -0.00111123
O        1.97515437       1.96585442       9.92034151       0.03901829      -0.03913579       0.00557647
O        3.14772141       0.79309446      14.97867167      -0.03971275       0.03974103      -0.00321182
10
Lattice="3.940949890606662 0.0 0.0 0.0 3.940949890606662 0.0 0.0 0.0 26.940967945119528" Properties=species:S:1:pos:R:3:forces:R:3 tau=tau37 tau_p=3 tau_q=7 stage=C constraint=fixed_layer_xy_centroids force_label=raw_dft projected_fmax_eV_A=0.013554588755115279 energy=-15499.351915397698 pbc="T T T"
Sr       0.00128250      -0.00126796      10.28498264       0.04899083      -0.04893298       0.00502754
Sr       1.16425663       2.77673887      15.33410246      -0.04563168       0.04528484      -0.00520031
Ti       1.99771812       1.94327538      11.73848861       0.04067562      -0.04071779       0.00438425
Ti       3.13663740       0.80414722      16.79586248      -0.04296776       0.04323618      -0.00362268
O       -0.00535611       1.99826928      11.87727852       0.03602964      -0.05456318       0.00223917
O        1.20076285       0.76756710      16.93473370      -0.04607391       0.04468732      -0.00554998
O        1.94268721       3.94632295      11.87723299       0.05461152      -0.03598027       0.00239601
O        3.17340964       2.74027395      16.93360036      -0.04447366       0.04583017      -0.00094359
O        1.97511433       1.96589345       9.92039432       0.03866991      -0.03875835       0.00496326
O        3.14776207       0.79305438      14.97864393      -0.03983076       0.03991432      -0.00369339
10
Lattice="3.940949890606662 0.0 0.0 0.0 3.940949890606662 0.0 0.0 0.0 26.940967945119528" Properties=species:S:1:pos:R:3:forces:R:3 tau=tau37 tau_p=3 tau_q=7 stage=C constraint=fixed_layer_xy_centroids force_label=raw_dft projected_fmax_eV_A=0.011358290557870432 energy=-15499.351924241397 pbc="T T T"
Sr       0.00135263      -0.00133751      10.28502788       0.04838842      -0.04834111       0.00412636
Sr       1.16423538       2.77675614      15.33404825      -0.04539900       0.04508969      -0.00405900
Ti       1.99766977       1.94332317      11.73853906       0.04123767      -0.04127829       0.00432691
Ti       3.13664555       0.80414220      16.79582286      -0.04318168       0.04338891      -0.00340003
O       -0.00548586       1.99810803      11.87730016       0.03787826      -0.05300355       0.00251068
O        1.20072946       0.76757506      16.93466623      -0.04569133       0.04479967      -0.00571993
O        1.94284908       3.94645332      11.87725651       0.05308042      -0.03781784       0.00267395
O        3.17340484       2.74030422      16.93359245      -0.04462098       0.04546147      -0.00135729
O        1.97506041       1.96594609       9.92046044       0.03834826      -0.03843336       0.00404152
O        3.14781337       0.79300390      14.97860617      -0.04004030       0.04013441      -0.00314343
10
Lattice="3.940949890606662 0.0 0.0 0.0 3.940949890606662 0.0 0.0 0.0 26.940967945119528" Properties=species:S:1:pos:R:3:forces:R:3 tau=tau37 tau_p=3 tau_q=7 stage=C constraint=fixed_layer_xy_centroids force_label=raw_dft projected_fmax_eV_A=0.00892070076667085 energy=-15499.35193335721 pbc="T T T"
Sr       0.00143868      -0.00142286      10.28508755       0.04802409      -0.04798347       0.00387208
Sr       1.16420853       2.77677798      15.33397994      -0.04544065       0.04512877      -0.00348899
Ti       1.99761270       1.94337950      11.73860461       0.04162693      -0.04170406       0.00373401
Ti       3.13665579       0.80413585      16.79577138      -0.04293614       0.04318733      -0.00331621
O       -0.00563569       1.99791506      11.87733063       0.03993617      -0.05125417       0.00255619
O        1.20068952       0.76758664      16.93457880      -0.04539000       0.04492797      -0.00548365
O        1.94304292       3.94660394      11.87728943       0.05133927      -0.03987035       0.00268963
O        3.17339707       2.74034027      16.93357973      -0.04478579       0.04515628      -0.00143056
O        1.97498743       1.96601747       9.92054048       0.03798728      -0.03806133       0.00351290
O        3.14787767       0.79294079      14.97855746      -0.04036118       0.04047276      -0.00264541
