10
Lattice="3.940949890606662 0.0 0.0 0.0 3.940949890606662 0.0 0.0 0.0 26.940967945119528" Properties=species:S:1:pos:R:3:forces:R:3 tau=tau85 tau_p=8 tau_q=5 stage=A constraint=rigid_scf force_label=raw_dft energy=-15497.09021605718 free_energy=-15497.09021605718 stress="0.006413330942168171 0.0 -0.0016958371152733874 0.0 0.021313192721624873 1.8363152303989035e-06 -0.0016958371152733874 1.8363152303989035e-06 -0.027025051245780658" pbc="T T T"
Sr       0.00003626       0.00009419      10.75260867       0.01444291      -0.00006505       0.50216884
Sr       3.15266178       1.97046076      14.64522241       1.28069682      -0.00024683       4.93298820
Ti       1.97047258       1.97057465      12.38212169      -1.58031519       0.00064458      -4.01350180
Ti       1.18201068       3.94088565      16.28444791      -0.06547057       0.00006993      -0.23497826
O        0.00000906       1.97050529      12.45001441       0.05009820      -0.00019823      -0.98407354
O        3.15294790       0.00000355      16.39256827      -0.02044156       0.00002211      -0.07711921
O        1.97049386       3.94093294      12.44909065       1.25879617      -0.00044069      -2.32834217
O        1.18238152       1.97047928      16.37955485      -0.16172676      -0.00007919      -0.22770512
O        1.97043435       1.97038588      10.49176941      -0.08434247       0.00026585       0.40857735
O        1.18235157       3.94090181      14.44792112      -0.69173731       0.00002777       2.02198597
