10
Lattice="3.940949890606662 0.0 0.0 0.0 3.940949890606662 0.0 0.0 0.0 26.940967945119528" Properties=species:S:1:pos:R:3:forces:R:3 tau=tau46 tau_p=4 tau_q=6 stage=B constraint=xy_fixed_z_free force_label=raw_dft energy=-15498.957970070913 free_energy=-15498.957970070913 stress="0.002600222366244847 -9.732470721114188e-05 0.0013965177327183661 -9.732470721114188e-05 0.002835270715735907 -0.0014001903631791638 0.0013965177327183661 -0.0014001903631791638 -0.009790314650871754" pbc="T T T"
Sr       0.00003626       0.00009419      10.62565649      -0.00888779       0.00851447      -1.10200387
Sr       1.57628183       2.36455575      15.18944277      -0.16233020       0.16242687      -0.19542261
Ti       1.97047258       1.97057465      11.90990920       0.12973195      -0.13003149       0.04970611
Ti       3.54658061       0.39403075      16.53490631      -0.00104233       0.00235307       0.54267992
O        0.00000906       1.97050529      12.05694525       0.16583178       0.12423673       0.35574915
O        1.57656794       0.39409854      16.70682789       0.00271843      -0.01395106      -0.04241909
O        1.97049386       3.94093294      12.05784142      -0.12440385      -0.16630538       0.35010815
O        3.54695145       2.36457427      16.71845763       0.01370912      -0.00362294      -0.09874939
O        1.97043435       1.97038588      10.13704333       0.02157670      -0.02102777      -0.22828619
O        3.54692150       0.39404691      14.73828992      -0.03690433       0.03740801       0.36863809
10
Lattice="3.940949890606662 0.0 0.0 0.0 3.940949890606662 0.0 0.0 0.0 26.940967945119528" Properties=species:S:1:pos:R:3:forces:R:3 tau=tau46 tau_p=4 tau_q=6 stage=B constraint=xy_fixed_z_free force_label=raw_dft energy=-15498.994182300277 free_energy=-15498.994182300277 stress="0.003982049577120022 -9.365207675034407e-05 0.0014240624611743494 -9.365207675034407e-05 0.004194143986231096 -0.001426816934019948 0.0014240624611743494 -0.001426816934019948 -0.008850121252907515" pbc="T T T"
Sr       0.00003612       0.00009431      10.60297534      -0.00770637       0.00736775      -0.87097251
Sr       1.57628196       2.36455593      15.18542056      -0.16530599       0.16538775      -0.15125568
Ti       1.97047269       1.97057450      11.91093220       0.13074111      -0.13099308       0.05885101
Ti       3.54658072       0.39403080      16.54607551      -0.00148070       0.00278013       0.34522819
O        0.00000902       1.97050521      12.06426709       0.16707003       0.12354768       0.21709187
O        1.57656794       0.39409860      16.70595486       0.00275854      -0.01423234       0.02529168
O        1.97049401       3.94093312      12.06504714      -0.12373974      -0.16750763       0.21235358
O        3.54695139       2.36457436      16.71642528       0.01403128      -0.00368645      -0.02468130
O        1.97043419       1.97038596      10.13234494       0.02119232      -0.02067347      -0.20250883
O        3.54692153       0.39404688      14.74587704      -0.03756099       0.03800965       0.39060174
10
Lattice="3.940949890606662 0.0 0.0 0.0 3.940949890606662 0.0 0.0 0.0 26.940967945119528" Properties=species:S:1:pos:R:3:forces:R:3 tau=tau46 tau_p=4 tau_q=6 stage=B constraint=xy_fixed_z_free force_label=raw_dft energy=-15499.023391543948 free_energy=-15499.023391543948 stress="0.0053785673098383875 -8.814313105914735e-05 0.0014525253472455328 -8.814313105914735e-05 0.005564035148108677 -0.0014543616624759315 0.0014525253472455328 -0.0014543616624759315 -0.008114677003132755" pbc="T T T"
Sr       0.00003612       0.00009431      10.57802609      -0.00648998       0.00617733      -0.64144344
Sr       1.57628196       2.36455593      15.18108089      -0.16861526       0.16865511      -0.07726345
Ti       1.97047269       1.97057450      11.91257569       0.13203566      -0.13226552       0.01998287
Ti       3.54658072       0.39403080      16.55614565      -0.00203631       0.00329307       0.26729060
O        0.00000902       1.97050521      12.07062432       0.16767424       0.12221739       0.09238128
O        1.57656794       0.39409860      16.70655214       0.00287449      -0.01464989       0.07163093
O        1.97049401       3.94093312      12.07126925      -0.12241356      -0.16806067       0.08856011
O        3.54695139       2.36457436      16.71560286       0.01449768      -0.00381886       0.02898662
O        1.97043419       1.97038596      10.12659178       0.02076809      -0.02023792      -0.14899517
O        3.54692153       0.39404688      14.75685129      -0.03829504       0.03868996       0.29886992
10
Lattice="3.940949890606662 0.0 0.0 0.0 3.940949890606662 0.0 0.0 0.0 26.940967945119528" Properties=species:S:1:pos:R:3:forces:R:3 tau=tau46 tau_p=4 tau_q=6 stage=B constraint=xy_fixed_z_free force_label=raw_dft energy=-15499.050355032106 free_energy=-15499.050355032106 stress="0.007289253307068447 -8.079787013755175e-05 0.0014910879670839096 -8.079787013755175e-05 0.007426976949348366 -0.0014920061246991088 0.0014910879670839096 -0.0014920061246991088 -0.007099194680722161" pbc="T T T"
Sr       0.00003612       0.00009431      10.54060222      -0.00477300       0.00450097      -0.32525561
Sr       1.57628196       2.36455593      15.17595213      -0.17291543       0.17285887       0.03253911
Ti       1.97047269       1.97057450      11.91406871       0.13352459      -0.13369839      -0.03224009
Ti       3.54658072       0.39403080      16.57188471      -0.00252200       0.00372193       0.16057722
O        0.00000902       1.97050521      12.07750183       0.16784496       0.11975530      -0.06634475
O        1.57656794       0.39409860      16.70952488       0.00300331      -0.01515357       0.13060741
O        1.97049401       3.94093312      12.07793097      -0.11995687      -0.16813961      -0.06884257
O        3.54695139       2.36457436      16.71621592       0.01509109      -0.00395693       0.09978091
O        1.97043419       1.97038596      10.11799560       0.02010808      -0.01958358      -0.10046380
O        3.54692153       0.39404688      14.77364298      -0.03940473       0.03969500       0.16964190
10
Lattice="3.940949890606662 0.0 0.0 0.0 3.940949890606662 0.0 0.0 0.0 26.940967945119528" Properties=species:S:1:pos:R:3:forces:R:3 tau=tau46 tau_p=4 tau_q=6 stage=B constraint=xy_fixed_z_free force_label=raw_dft energy=-15499.06276151835 free_energy=-15499.06276151835 stress="0.009068642765324986 -7.345260921595614e-05 0.0015241416412310898 -7.345260921595614e-05 0.009148522477847337 -0.0015241416412310898 0.0015241416412310898 -0.0015241416412310898 -0.006056167629855583" pbc="T T T"
Sr       0.00003612       0.00009431      10.50114731      -0.00304573       0.00281022      -0.03384652
Sr       1.57628196       2.36455593      15.17333694      -0.17593905       0.17576164       0.13767717
Ti       1.97047269       1.97057450      11.91395569       0.13416299      -0.13427406      -0.09911114
Ti       3.54658072       0.39403080      16.58962807      -0.00304033       0.00416493       0.05944828
O        0.00000902       1.97050521      12.08050193       0.16687642       0.11637996      -0.19369149
O        1.57656794       0.39409860      16.71619588       0.00311849      -0.01548858       0.17770977
O        1.97049401       3.94093312      12.08068244      -0.11659182      -0.16704354      -0.19475284
O        3.54695139       2.36457436      16.72005489       0.01553332      -0.00405926       0.16035739
O        1.97043419       1.97038596      10.10797895       0.01944500      -0.01892203      -0.06780410
O        3.54692153       0.39404688      14.79183786      -0.04051904       0.04067048       0.05401348
10
Lattice="3.940949890606662 0.0 0.0 0.0 3.940949890606662 0.0 0.0 0.0 26.940967945119528" Properties=species:S:1:pos:R:3:forces:R:3 tau=tau46 tau_p=4 tau_q=6 stage=B constraint=xy_fixed_z_free force_label=raw_dft energy=-15499.067510313007 free_energy=-15499.067510313007 stress="0.009590156290758274 -7.069813637035779e-05 0.001526896114076688 -7.069813637035779e-05 0.009640654959594243 -0.0015259779564614888 0.001526896114076688 -0.0015259779564614888 -0.005682477480469407" pbc="T T T"
Sr       0.00003612       0.00009431      10.48626525      -0.00246492       0.00223969       0.04932250
Sr       1.57628196       2.36455593      15.17555357      -0.17515486       0.17490752       0.16416699
Ti       1.97047269       1.97057450      11.91155224       0.13344128      -0.13352073      -0.12697959
Ti       3.54658072       0.39403080      16.59751311      -0.00329075       0.00437319       0.03529688
O        0.00000902       1.97050521      12.07739987       0.16512499       0.11426548      -0.21582148
O        1.57656794       0.39409860      16.72245801       0.00314523      -0.01536723       0.17988466
O        1.97049401       3.94093312      12.07746878      -0.11446731      -0.16522475      -0.21628403
O        3.54695139       2.36457436      16.72493327       0.01546493      -0.00406311       0.16882995
O        1.97043419       1.97038596      10.10282383       0.01916475      -0.01864873      -0.06826870
O        3.54692153       0.39404688      14.79935203      -0.04096359       0.04103892       0.02985256
10
Lattice="3.940949890606662 0.0 0.0 0.0 3.940949890606662 0.0 0.0 0.0 26.940967945119528" Properties=species:S:1:pos:R:3:forces:R:3 tau=tau46 tau_p=4 tau_q=6 stage=B constraint=xy_fixed_z_free force_label=raw_dft energy=-15499.074791535102 free_energy=-15499.074791535102 stress="0.010072189038737986 -6.794366352475943e-05 0.0015213871683854914 -6.794366352475943e-05 0.010085043245350778 -0.001520469010770292 0.0015213871683854914 -0.001520469010770292 -0.005271142868860052" pbc="T T T"
Sr       0.00003612       0.00009431      10.46989497      -0.00188950       0.00166890       0.12021193
Sr       1.57628196       2.36455593      15.18067293      -0.17267940       0.17233976       0.18415424
Ti       1.97047269       1.97057450      11.90665744       0.13186854      -0.13193564      -0.15428059
Ti       3.54658072       0.39403080      16.60732063      -0.00359543       0.00464444       0.02090847
O        0.00000902       1.97050521      12.07067061       0.16206306       0.11127709      -0.22463471
O        1.57656794       0.39409860      16.73231387       0.00313289      -0.01502398       0.17101358
O        1.97049401       3.94093312      12.07060594      -0.11145784      -0.16207694      -0.22441617
O        3.54695139       2.36457436      16.73305357       0.01518931      -0.00401349       0.16772746
O        1.97043419       1.97038596      10.09572417       0.01880608      -0.01829314      -0.07657954
O        3.54692153       0.39404688      14.80840583      -0.04143821       0.04141302       0.01589507
10
Lattice="3.940949890606662 0.0 0.0 0.0 3.940949890606662 0.0 0.0 0.0 26.940967945119528" Properties=species:S:1:pos:R:3:forces:R:3 tau=tau46 tau_p=4 tau_q=6 stage=B constraint=xy_fixed_z_free force_label=raw_dft energy=-15499.08777694354 free_energy=-15499.08777694354 stress="0.010660728070080833 -6.151656021836326e-05 0.0015030240160815026 -6.151656021836326e-05 0.010612983874090463 -0.0015011877008511037 0.0015030240160815026 -0.0015011877008511037 -0.0046743404189804084" pbc="T T T"
Sr       0.00003612       0.00009431      10.44533957      -0.00114748       0.00093614       0.20251217
Sr       1.57628196       2.36455593      15.19156309      -0.16711451       0.16663602       0.20184368
Ti       1.97047269       1.97057450      11.89642272       0.12852045      -0.12856853      -0.18974176
Ti       3.54658072       0.39403080      16.62362190      -0.00401735       0.00499874       0.01051118
O        0.00000902       1.97050521      12.05683023       0.15620789       0.10612408      -0.22245930
O        1.57656794       0.39409860      16.75039505       0.00307684      -0.01428865       0.14779369
O        1.97049401       3.94093312      12.05655760      -0.10626626      -0.15608962      -0.22122646
O        3.54695139       2.36457436      16.74834901       0.01455553      -0.00388879       0.15676942
O        1.97043419       1.97038596      10.08304530       0.01819647      -0.01769176      -0.09425921
O        3.54692153       0.39404688      14.82319548      -0.04201183       0.04183236       0.00825710
10
Lattice="3.940949890606662 0.0 0.0 0.0 3.940949890606662 0.0 0.0 0.0 26.940967945119528" Properties=species:S:1:pos:R:3:forces:R:3 tau=tau46 tau_p=4 tau_q=6 stage=B constraint=xy_fixed_z_free force_label=raw_dft energy=-15499.108564944185 free_energy=-15499.108564944185 stress="0.011372300221860409 -5.2334984066368754e-05 0.0014589524505519286 -5.2334984066368754e-05 0.011228149476274095 -0.0014561979777063304 0.0014589524505519286 -0.0014561979777063304 -0.0038103541030777245" pbc="T T T"
Sr       0.00003612       0.00009431      10.40850645      -0.00032370       0.00011827       0.29417200
Sr       1.57628196       2.36455593      15.21214310      -0.15672802       0.15606031       0.21413716
Ti       1.97047269       1.97057450      11.87692628       0.12197313      -0.12197082      -0.23378167
Ti       3.54658072       0.39403080      16.65048775      -0.00398752       0.00486607       0.00607552
O        0.00000902       1.97050521      12.03133032       0.14604277       0.09775540      -0.20346888
O        1.57656794       0.39409860      16.78161960       0.00290329      -0.01297739       0.10398878
O        1.97049401       3.94093312      12.03074336      -0.09785747      -0.14575327      -0.20078387
O        3.54695139       2.36457436      16.77525952       0.01337976      -0.00360880       0.13164074
O        1.97043419       1.97038596      10.06091978       0.01708190      -0.01658207      -0.12374128
O        3.54692153       0.39404688      14.84738381      -0.04248388       0.04209179       0.01176177
10
Lattice="3.940949890606662 0.0 0.0 0.0 3.940949890606662 0.0 0.0 0.0 26.940967945119528" Properties=species:S:1:pos:R:3:forces:R:3 tau=tau46 tau_p=4 tau_q=6 stage=B constraint=xy_fixed_z_free force_label=raw_dft energy=-15499.138511480302 free_energy=-15499.138511480302 stress="0.012194969445079116 -3.9480777453576426e-05 0.0013717274771079808 -3.9480777453576426e-05 0.011901159008215293 -0.001368054846647183 0.0013717274771079808 -0.001368054846647183 -0.0025956315781688498" pbc="T T T"
Sr       0.00003612       0.00009431      10.35325678       0.00049185      -0.00067723       0.38630105
Sr       1.57628196       2.36455593      15.24918889      -0.13930468       0.13844259       0.21598295
Ti       1.97047269       1.97057450      11.84119580       0.11101612      -0.11095750      -0.28540685
Ti       3.54658072       0.39403080      16.69471152      -0.00366871       0.00439170       0.00963932
O        0.00000902       1.97050521      11.98649635       0.12951315       0.08507292      -0.15900473
O        1.57656794       0.39409860      16.83402243       0.00251840      -0.01088836       0.03125176
O        1.97049401       3.94093312      11.98544667      -0.08515314      -0.12903570      -0.15431735
O        3.54695139       2.36457436      16.82117764       0.01144321      -0.00306475       0.08629008
O        1.97043419       1.97038596      10.02261988       0.01520756      -0.01470980      -0.16587369
O        3.54692153       0.39404688      14.88720399      -0.04206428       0.04142639       0.03513798
10
Lattice="3.940949890606662 0.0 0.0 0.0 3.940949890606662 0.0 0.0 0.0 26.940967945119528" Properties=species:S:1:pos:R:3:forces:R:3 tau=tau46 tau_p=4 tau_q=6 stage=B constraint=xy_fixed_z_free force_label=raw_dft energy=-15499.174163971498 free_energy=-15499.174163971498 stress="0.012962549211385859 -2.570841322558465e-05 0.001217476997754473 -2.570841322558465e-05 0.012455726207795764 -0.0012119680520632763 0.001217476997754473 -0.0012119680520632763 -0.001097198350163345" pbc="T T T"
Sr       0.00003612       0.00009431      10.27440282       0.00110789      -0.00129481       0.44495614
Sr       1.57628196       2.36455593      15.31184836      -0.11361345       0.11260763       0.20145493
Ti       1.97047269       1.97057450      11.77920889       0.09389257      -0.09376093      -0.33135915
Ti       3.54658072       0.39403080      16.76456570      -0.00383994       0.00441638       0.02765530
O        0.00000902       1.97050521      11.91261165       0.10612203       0.06791646      -0.08132219
O        1.57656794       0.39409860      16.91689694       0.00203117      -0.00818536      -0.07513201
O        1.97049401       3.94093312      11.91093730      -0.06799977      -0.10551447      -0.07414213
O        3.54695139       2.36457436      16.89511310       0.00884974      -0.00237159       0.01660650
O        1.97043419       1.97038596       9.95904594       0.01262823      -0.01213329      -0.21707515
O        3.54692153       0.39404688      14.95068926      -0.03917821       0.03831998       0.08835776
10
Lattice="3.940949890606662 0.0 0.0 0.0 3.940949890606662 0.0 0.0 0.0 26.940967945119528" Properties=species:S:1:pos:R:3:forces:R:3 tau=tau46 tau_p=4 tau_q=6 stage=B constraint=xy_fixed_z_free force_label=raw_dft energy=-15499.205778973615 free_energy=-15499.205778973615 stress="0.013235242023100098 -1.2854206612792324e-05 0.0010044644310282002 -1.2854206612792324e-05 0.012500715930940536 -0.000999873642952203 0.0010044644310282002 -0.000999873642952203 0.00015333232173830844" pbc="T T T"
Sr       0.00003612       0.00009431      10.18197766       0.00097265      -0.00114825       0.40385114
Sr       1.57628196       2.36455593      15.40025773      -0.08500633       0.08400154       0.16882403
Ti       1.97047269       1.97057450      11.68875318       0.07310006      -0.07295197      -0.33692276
Ti       3.54658072       0.39403080      16.85753382      -0.00323239       0.00369468       0.06145502
O        0.00000902       1.97050521      11.81207570       0.08040559       0.04985652       0.01433467
O        1.57656794       0.39409860      17.02467328       0.00142465      -0.00542400      -0.18714314
O        1.97049401       3.94093312      11.80977056      -0.04992491      -0.07979187       0.02396397
O        3.54695139       2.36457436      16.99362342       0.00606060      -0.00159794      -0.05830208
O        1.97043419       1.97038596       9.86962755       0.00955885      -0.00907137      -0.24753836
O        3.54692153       0.39404688      15.03702706      -0.03335878       0.03243215       0.15747750
10
Lattice="3.940949890606662 0.0 0.0 0.0 3.940949890606662 0.0 0.0 0.0 26.940967945119528" Properties=species:S:1:pos:R:3:forces:R:3 tau=tau46 tau_p=4 tau_q=6 stage=B constraint=xy_fixed_z_free force_label=raw_dft energy=-15499.224999054324 free_energy=-15499.224999054324 stress="0.012807380574417153 -5.5089456911967096e-06 0.0008373597450619001 -5.5089456911967096e-06 0.011978284247892046 -0.0008327689569859026 0.0008373597450619001 -0.0008327689569859026 0.0004728511718277176" pbc="T T T"
Sr       0.00003612       0.00009431      10.11934770       0.00069368      -0.00089217       0.27369445
Sr       1.57628196       2.36455593      15.47421560      -0.06595137       0.06504942       0.12968336
Ti       1.97047269       1.97057450      11.60969264       0.05855790      -0.05847100      -0.25759317
Ti       3.54658072       0.39403080      16.93181733      -0.00334912       0.00381732       0.07705211
O        0.00000902       1.97050521      11.73270738       0.06360061       0.03862388       0.06289767
O        1.57656794       0.39409860      17.10497816       0.00105621      -0.00390268      -0.22726367
O        1.97049401       3.94093312      11.73015309      -0.03871001      -0.06307970       0.07367805
O        3.54695139       2.36457436      17.06996506       0.00448658      -0.00119968      -0.08250850
O        1.97043419       1.97038596       9.79376790       0.00752742      -0.00702091      -0.23159520
O        3.54692153       0.39404688      15.10867510      -0.02791190       0.02707526       0.18195491
10
Lattice="3.940949890606662 0.0 0.0 0.0 3.940949890606662 0.0 0.0 0.0 26.940967945119528" Properties=species:S:1:pos:R:3:forces:R:3 tau=tau46 tau_p=4 tau_q=6 stage=B constraint=xy_fixed_z_free force_label=raw_dft energy=-15499.239969261098 free_energy=-15499.239969261098 stress="0.011908504269136888 -9.181576151994517e-07 0.0006730095319411981 -9.181576151994517e-07 0.011088589518763778 -0.0006693369014804003 0.0006730095319411981 -0.0006693369014804003 0.00035808146992778614" pbc="T T T"
Sr       0.00003612       0.00009431      10.05955755       0.00020209      -0.00041909       0.07939901
Sr       1.57628196       2.36455593      15.55473467      -0.04972822       0.04898954       0.08041382
Ti       1.97047269       1.97057450      11.52135728       0.04546765      -0.04545016      -0.12115141
Ti       3.54658072       0.39403080      17.01151511      -0.00317197       0.00367334       0.06336252
O        0.00000902       1.97050521      11.65146203       0.04893298       0.02918845       0.07687624
O        1.57656794       0.39409860      17.18273653       0.00077442      -0.00276136      -0.20675192
O        1.97049401       3.94093312      11.64895167      -0.02929952      -0.04851929       0.08775227
O        3.54695139       2.36457436      17.14766105       0.00324216      -0.00096673      -0.06128687
O        1.97043419       1.97038596       9.70865511       0.00569911      -0.00519106      -0.15267673
O        3.54692153       0.39404688      15.18868896      -0.02211843       0.02145663       0.15406307
10
Lattice="3.940949890606662 0.0 0.0 0.0 3.940949890606662 0.0 0.0 0.0 26.940967945119528" Properties=species:S:1:pos:R:3:forces:R:3 tau=tau46 tau_p=4 tau_q=6 stage=B constraint=xy_fixed_z_free force_label=raw_dft energy=-15499.245735489398 free_energy=-15499.245735489398 stress="0.011241003682886887 0.0 0.0005876208737276491 0.0 0.010522086270185716 -0.0005848664008820507 0.0005876208737276491 -0.0005848664008820507 0.00013313285420392051" pbc="T T T"
Sr       0.00003612       0.00009431      10.02631995       0.00003317      -0.00025171      -0.03669350
Sr       1.57628196       2.36455593      15.60169272      -0.04202005       0.04141122       0.04548050
Ti       1.97047269       1.97057450      11.46923106       0.03812895      -0.03820017      -0.02122960
Ti       3.54658072       0.39403080      17.05814872      -0.00186611       0.00242558       0.03753296
O        0.00000902       1.97050521      11.60815095       0.04185036       0.02480086       0.05009563
O        1.57656794       0.39409860      17.22103037       0.00046100      -0.00230499      -0.14309526
O        1.97049401       3.94093312      11.60595284      -0.02491116      -0.04155134       0.05981543
O        3.54695139       2.36457436      17.18977486       0.00275494      -0.00076465      -0.01263954
O        1.97043419       1.97038596       9.65698807       0.00477274      -0.00425569      -0.06367851
O        3.54692153       0.39404688      15.23803043      -0.01920408       0.01869063       0.08441163
10
Lattice="3.940949890606662 0.0 0.0 0.0 3.940949890606662 0.0 0.0 0.0 26.940967945119528" Properties=species:S:1:pos:R:3:forces:R:3 tau=tau46 tau_p=4 tau_q=6 stage=B constraint=xy_fixed_z_free force_label=raw_dft energy=-15499.247243544292 free_energy=-15499.247243544292 stress="0.010964638240711852 9.181576151994517e-07 0.0005472219386588731 9.181576151994517e-07 0.010364163160371411 -0.0005453856234284743 0.0005472219386588731 -0.0005453856234284743 6.886182113995888e-05" pbc="T T T"
Sr       0.00003612       0.00009431      10.00668988      -0.00004499      -0.00018126      -0.06615448
Sr       1.57628196       2.36455593      15.62550192      -0.03866579       0.03811660       0.02586221
Ti       1.97047269       1.97057450      11.44354853       0.03521717      -0.03534573       0.02746350
Ti       3.54658072       0.39403080      17.08264024      -0.00146476       0.00206125       0.00397287
O        0.00000902       1.97050521      11.58822226       0.03876838       0.02283217       0.01606477
O        1.57656794       0.39409860      17.23695753       0.00031239      -0.00203734      -0.08225396
O        1.97049401       3.94093312      11.58639659      -0.02295995      -0.03853364       0.02415346
O        3.54695139       2.36457436      17.21054476       0.00246929      -0.00066206       0.02843923
O        1.97043419       1.97038596       9.63000913       0.00428114      -0.00375561      -0.00199723
O        3.54692153       0.39404688      15.26480912      -0.01791313       0.01750561       0.02444965
10
Lattice="3.940949890606662 0.0 0.0 0.0 3.940949890606662 0.0 0.0 0.0 26.940967945119528" Properties=species:S:1:pos:R:3:forces:R:3 tau=tau46 tau_p=4 tau_q=6 stage=B constraint=xy_fixed_z_free force_label=raw_dft energy=-15499.247709539242 free_energy=-15499.247709539242 stress="0.010971983501633448 9.181576151994517e-07 0.0005463037810436738 9.181576151994517e-07 0.010463324182812952 -0.0005444674658132749 0.0005463037810436738 -0.0005444674658132749 8.079787013755175e-05" pbc="T T T"
Sr       0.00003612       0.00009431      10.00399469      -0.00002648      -0.00019797      -0.04369796
Sr       1.57628196       2.36455593      15.62647000      -0.03861437       0.03810298       0.02000987
Ti       1.97047269       1.97057450      11.44356460       0.03513412      -0.03526551       0.02609567
Ti       3.54658072       0.39403080      17.08372842      -0.00144110       0.00207257      -0.00769480
O        0.00000902       1.97050521      11.58954978       0.03868713       0.02275375      -0.00268577
O        1.57656794       0.39409860      17.23337972       0.00027279      -0.00205765      -0.05148686
O        1.97049401       3.94093312      11.58801099      -0.02289156      -0.03849250       0.00409654
O        3.54695139       2.36457436      17.21089037       0.00246055      -0.00066772       0.04297110
O        1.97043419       1.97038596       9.62863834       0.00424592      -0.00372270       0.01582077
O        3.54692153       0.39404688      15.26709305      -0.01782649       0.01747450      -0.00342831
10
Lattice="3.940949890606662 0.0 0.0 0.0 3.940949890606662 0.0 0.0 0.0 26.940967945119528" Properties=species:S:1:pos:R:3:forces:R:3 tau=tau46 tau_p=4 tau_q=6 stage=B constraint=xy_fixed_z_free force_label=raw_dft energy=-15499.248026143692 free_energy=-15499.248026143692 stress="0.011010546121471825 9.181576151994517e-07 0.000550894569119671 9.181576151994517e-07 0.010631347026394452 -0.0005490582538892722 0.000550894569119671 -0.0005490582538892722 0.0001101789138239342" pbc="T T T"
Sr       0.00003612       0.00009431      10.00295992       0.00002083      -0.00024168      -0.00777733
Sr       1.57628196       2.36455593      15.62460504      -0.03900749       0.03854649       0.01246599
Ti       1.97047269       1.97057450      11.44766899       0.03540101      -0.03550591       0.01228884
Ti       3.54658072       0.39403080      17.08130947      -0.00142311       0.00207051      -0.01503530
O        0.00000902       1.97050521      11.59358742       0.03899875       0.02292087      -0.01592773
O        1.57656794       0.39409860      17.22631837       0.00024220      -0.00213042      -0.02305945
O        1.97049401       3.94093312      11.59245509      -0.02307179      -0.03886222      -0.01097501
O        3.54695139       2.36457436      17.20948188       0.00248883      -0.00068931       0.04784283
O        1.97043419       1.97038596       9.63135234       0.00427394      -0.00375047       0.02068992
O        3.54692153       0.39404688      15.26558144      -0.01792316       0.01764214      -0.02051303
10
Lattice="3.940949890606662 0.0 0.0 0.0 3.940949890606662 0.0 0.0 0.0 26.940967945119528" Properties=species:S:1:pos:R:3:forces:R:3 tau=tau46 tau_p=4 tau_q=6 stage=B constraint=xy_fixed_z_free force_label=raw_dft energy=-15499.248173085163 free_energy=-15499.248173085163 stress="0.010994019284398235 9.181576151994517e-07 0.0005518127267348705 9.181576151994517e-07 0.010713063054147202 -0.000550894569119671 0.0005518127267348705 -0.000550894569119671 0.00011660601713033036" pbc="T T T"
Sr       0.00003612       0.00009431      10.00156356       0.00004268      -0.00025994       0.00875615
Sr       1.57628196       2.36455593      15.62498433      -0.03904940       0.03862903       0.00572045
Ti       1.97047269       1.97057450      11.44893381       0.03545346      -0.03555990       0.00223969
Ti       3.54658072       0.39403080      17.08068856      -0.00140562       0.00206717      -0.01339442
O        0.00000902       1.97050521      11.59398597       0.03901520       0.02293784      -0.01587888
O        1.57656794       0.39409860      17.22356750       0.00022240      -0.00215227      -0.01175817
O        1.97049401       3.94093312      11.59315902      -0.02309622      -0.03892033      -0.01228165
O        3.54695139       2.36457436      17.21102040       0.00248009      -0.00070011       0.04115462
O        1.97043419       1.97038596       9.63224703       0.00428397      -0.00375998       0.01527698
O        3.54692153       0.39404688      15.26516980      -0.01794681       0.01771824      -0.01983452
10
Lattice="3.940949890606662 0.0 0.0 0.0 3.940949890606662 0.0 0.0 0.0 26.940967945119528" Properties=species:S:1:pos:R:3:forces:R:3 tau=tau46 tau_p=4 tau_q=6 stage=B constraint=xy_fixed_z_free force_label=raw_dft energy=-15499.24827839322 free_energy=-15499.24827839322 stress="0.010949029561253461 9.181576151994517e-07 0.000550894569119671 9.181576151994517e-07 0.010746116728294383 -0.0005490582538892722 0.000550894569119671 -0.0005490582538892722 0.00010926075620873476" pbc="T T T"
Sr       0.00003612       0.00009431       9.99981777       0.00004654      -0.00026354       0.01415598
Sr       1.57628196       2.36455593      15.62673773      -0.03886737       0.03847707       0.00000386
Ti       1.97047269       1.97057450      11.44825555       0.03535678      -0.03546143      -0.00291357
Ti       3.54658072       0.39403080      17.08144147      -0.00138840       0.00206845      -0.00891042
O        0.00000902       1.97050521      11.59247862       0.03884011       0.02284631      -0.01198854
O        1.57656794       0.39409860      17.22310062       0.00020595      -0.00214944      -0.00640745
O        1.97049401       3.94093312      11.59189857      -0.02301163      -0.03877969      -0.00946063
O        3.54695139       2.36457436      17.21404637       0.00244923      -0.00070525       0.03183103
O        1.97043419       1.97038596       9.63161203       0.00427369      -0.00375073       0.00864096
O        3.54692153       0.39404688      15.26593123      -0.01790491       0.01771799      -0.01495148
10
Lattice="3.940949890606662 0.0 0.0 0.0 3.940949890606662 0.0 0.0 0.0 26.940967945119528" Properties=species:S:1:pos:R:3:forces:R:3 tau=tau46 tau_p=4 tau_q=6 stage=B constraint=xy_fixed_z_free force_label=raw_dft energy=-15499.248363428795 free_energy=-15499.248363428795 stress="0.010879249582498304 9.181576151994517e-07 0.0005472219386588731 9.181576151994517e-07 0.010758970934907176 -0.0005463037810436738 0.0005472219386588731 -0.0005463037810436738 9.732470721114188e-05" pbc="T T T"
Sr       0.00003612       0.00009431       9.99745019       0.00003857      -0.00025660       0.01337256
Sr       1.57628196       2.36455593      15.62970046      -0.03850433       0.03814849      -0.00559523
Ti       1.97047269       1.97057450      11.44607892       0.03515392      -0.03527682      -0.00524299
Ti       3.54658072       0.39403080      17.08337816      -0.00136783       0.00208465      -0.00325887
O        0.00000902       1.97050521      11.58950712       0.03850330       0.02266659      -0.00620099
O        1.57656794       0.39409860      17.22397614       0.00018281      -0.00212373      -0.00261224
O        1.97049401       3.94093312      11.58918425      -0.02283911      -0.03847990      -0.00479459
O        3.54695139       2.36457436      17.21858531       0.00239473      -0.00070474       0.02018650
O        1.97043419       1.97038596       9.62967864       0.00424335      -0.00371936       0.00211936
O        3.54692153       0.39404688      15.26778076      -0.01780566       0.01766194      -0.00797351
