10
Lattice="3.940949890606662 0.0 0.0 0.0 3.940949890606662 0.0 0.0 0.0 26.940967945119528" Properties=species:S:1:pos:R:3:forces:R:3 tau=tau19 tau_p=1 tau_q=9 stage=B constraint=xy_fixed_z_free force_label=raw_dft energy=-15500.272062764778 free_energy=-15500.272062764778 stress="0.00946161422463035 -0.0003654267308493818 0.0067558037326375655 -0.0003654267308493818 0.009170558260612123 -0.00674937662933117 0.0067558037326375655 -0.00674937662933117 -0.0018831412687740753" pbc="T T T"
Sr       0.00003626       0.00009419      10.75260867      -0.00225203       0.00218261       0.09790864
Sr       0.39399686       3.54684071      14.64522241      -0.35270187       0.35288211       0.67557510
Ti       1.97047258       1.97057465      12.38212169       0.34001477      -0.34052564      -0.15335011
Ti       2.36429564       1.57631572      16.28444791      -0.04984443       0.04767699      -0.01399091
O        0.00000906       1.97050529      12.45001441       0.90668642       0.27253539      -0.29857990
O        0.39428297       1.57638350      16.39256827      -0.00893227       0.02022995      -0.03404860
O        1.97049386       3.94093294      12.44909065      -0.27290640      -0.90487508      -0.29596714
O        2.36466649       3.54685924      16.37955485      -0.02008366       0.01092539       0.00380626
O        1.97043435       1.97038588      10.49176941       0.16407418      -0.16347845       0.08180582
O        2.36463654       1.57633188      14.44792112      -0.70405495       0.70244621      -0.06315889
10
Lattice="3.940949890606662 0.0 0.0 0.0 3.940949890606662 0.0 0.0 0.0 26.940967945119528" Properties=species:S:1:pos:R:3:forces:R:3 tau=tau19 tau_p=1 tau_q=9 stage=B constraint=xy_fixed_z_free force_label=raw_dft energy=-15500.284587620543 free_energy=-15500.284587620543 stress="0.00905854303155779 -0.00035808146992778614 0.00659788062282326 -0.00035808146992778614 0.00879044100791955 -0.006592371677132063 0.00659788062282326 -0.006592371677132063 -0.0020171922805931955" pbc="T T T"
Sr       0.00003612       0.00009431      10.75462384      -0.00204480       0.00197975       0.08374546
Sr       0.39399699       3.54684090      14.65912719      -0.33394619       0.33404724       0.53582613
Ti       1.97047269       1.97057450      12.37896575       0.32505455      -0.32551297      -0.16323163
Ti       2.36429575       1.57631578      16.28415996      -0.04980895       0.04780298      -0.07180654
O        0.00000902       1.97050521      12.44386918       0.89337325       0.27803113      -0.24166236
O        0.39428297       1.57638358      16.39186755      -0.00836740       0.01969388      -0.00809923
O        1.97049401       3.94093312      12.44299912      -0.27834326      -0.89168943      -0.23920464
O        2.36466641       3.54685933      16.37963315      -0.01953473       0.01021911       0.02866626
O        1.97043419       1.97038596      10.49345309       0.16391991      -0.16333807       0.02616843
O        2.36463656       1.57633185      14.44662113      -0.69030238       0.68876666       0.04959838
10
Lattice="3.940949890606662 0.0 0.0 0.0 3.940949890606662 0.0 0.0 0.0 26.940967945119528" Properties=species:S:1:pos:R:3:forces:R:3 tau=tau19 tau_p=1 tau_q=9 stage=B constraint=xy_fixed_z_free force_label=raw_dft energy=-15500.295780751183 free_energy=-15500.295780751183 stress="0.008620581849107651 -0.00035073620900619054 0.006423430675935364 -0.00035073620900619054 0.008379106396310197 -0.006417921730244168 0.006423430675935364 -0.006417921730244168 -0.0023284477121458098" pbc="T T T"
Sr       0.00003612       0.00009431      10.75699009      -0.00190904       0.00183937       0.06304576
Sr       0.39399699       3.54684090      14.67442214      -0.31422480       0.31427725       0.40806133
Ti       1.97047269       1.97057450      12.37447189       0.31164393      -0.31203782      -0.15302486
Ti       2.36429575       1.57631578      16.28235181      -0.04929782       0.04746565      -0.04402757
O        0.00000902       1.97050521      12.43699030       0.87497057       0.28149054      -0.18388864
O        0.39428297       1.57638358      16.39156114      -0.00763103       0.01911795       0.00768400
O        1.97049401       3.94093312      12.43618887      -0.28174817      -0.87343177      -0.18163918
O        2.36466641       3.54685933      16.38034937      -0.01894183       0.00929325       0.04270114
O        1.97043419       1.97038596      10.49435409       0.16260376      -0.16206923      -0.03019195
O        2.36463656       1.57633185      14.44764025      -0.67546557       0.67405506       0.07127972
10
Lattice="3.940949890606662 0.0 0.0 0.0 3.940949890606662 0.0 0.0 0.0 26.940967945119528" Properties=species:S:1:pos:R:3:forces:R:3 tau=tau19 tau_p=1 tau_q=9 stage=B constraint=xy_fixed_z_free force_label=raw_dft energy=-15500.307605321985 free_energy=-15500.307605321985 stress="0.007930127322477665 -0.0003424727904693955 0.006169101016525116 -0.0003424727904693955 0.007731805277594582 -0.006164510228449119 0.006169101016525116 -0.006164510228449119 -0.0027801812588239398" pbc="T T T"
Sr       0.00003612       0.00009431      10.76049907      -0.00180877       0.00172135       0.02321860
Sr       0.39399699       3.54684090      14.69736455      -0.28624529       0.28620980       0.22682298
Ti       1.97047269       1.97057450      12.36670297       0.29399819      -0.29430698      -0.12811164
Ti       2.36429575       1.57631578      16.28017263      -0.04860182       0.04712369       0.01068962
O        0.00000902       1.97050521      12.42668746       0.84635394       0.28446171      -0.10525993
O        0.39428297       1.57638358      16.39159981      -0.00651080       0.01823426       0.03220127
O        1.97049401       3.94093312      12.42600281      -0.28464477      -0.84508356      -0.10325113
O        2.36466641       3.54685933      16.38218010      -0.01804015       0.00786912       0.06318537
O        1.97043419       1.97038596      10.49384361       0.15966962      -0.15918702      -0.09410135
O        2.36463656       1.57633185      14.45026695      -0.65417015       0.65295762       0.07460647
10
Lattice="3.940949890606662 0.0 0.0 0.0 3.940949890606662 0.0 0.0 0.0 26.940967945119528" Properties=species:S:1:pos:R:3:forces:R:3 tau=tau19 tau_p=1 tau_q=9 stage=B constraint=xy_fixed_z_free force_label=raw_dft energy=-15500.315252265078 free_energy=-15500.315252265078 stress="0.006905463423915077 -0.0003342093719326004 0.005807346916136533 -0.0003342093719326004 0.006779675830632751 -0.005804592443290933 0.005807346916136533 -0.005804592443290933 -0.0032695592677252474" pbc="T T T"
Sr       0.00003612       0.00009431      10.76510507      -0.00179283       0.00169410      -0.05021493
Sr       0.39399699       3.54684090      14.73143424      -0.24826341       0.24813845      -0.02685492
Ti       1.97047269       1.97057450      12.35323173       0.27188953      -0.27208185      -0.07984947
Ti       2.36429575       1.57631578      16.27882410      -0.04778035       0.04679793       0.08291859
O        0.00000902       1.97050521      12.41124859       0.80322831       0.28525104      -0.00407366
O        0.39428297       1.57638358      16.39295117      -0.00483959       0.01689112       0.07303604
O        1.97049401       3.94093312      12.41077284      -0.28536237      -0.80240299      -0.00256982
O        2.36466641       3.54685933      16.38672478      -0.01666615       0.00571402       0.09502437
O        1.97043419       1.97038596      10.48950642       0.15379516      -0.15338559      -0.15213809
O        2.36463656       1.57633185      14.45552101      -0.62420831       0.62338402       0.06472161
10
Lattice="3.940949890606662 0.0 0.0 0.0 3.940949890606662 0.0 0.0 0.0 26.940967945119528" Properties=species:S:1:pos:R:3:forces:R:3 tau=tau19 tau_p=1 tau_q=9 stage=B constraint=xy_fixed_z_free force_label=raw_dft energy=-15500.316521404022 free_energy=-15500.316521404022 stress="0.006863228173615902 -0.0003342093719326004 0.005754093774454963 -0.0003342093719326004 0.0067558037326375655 -0.005751339301609365 0.005754093774454963 -0.005751339301609365 -0.0030583830162293733" pbc="T T T"
Sr       0.00003612       0.00009431      10.76472936      -0.00180774       0.00170670      -0.06673221
Sr       0.39399699       3.54684090      14.73638418      -0.24231850       0.24218352      -0.05219108
Ti       1.97047269       1.97057450      12.34950068       0.27060295      -0.27077419      -0.06642779
Ti       2.36429575       1.57631578      16.28050388      -0.04807500       0.04719388       0.08109054
O        0.00000902       1.97050521      12.40865205       0.79545715       0.28441235       0.00059547
O        0.39428297       1.57638358      16.39468330      -0.00452874       0.01660290       0.07714209
O        1.97049401       3.94093312      12.40824073      -0.28451390      -0.79476244       0.00191830
O        2.36466641       3.54685933      16.38941385      -0.01636430       0.00529699       0.09588364
O        1.97043419       1.97038596      10.48576618       0.15168429      -0.15128962      -0.12745524
O        2.36463656       1.57633185      14.45744575      -0.62013620       0.61943017       0.05617629
10
Lattice="3.940949890606662 0.0 0.0 0.0 3.940949890606662 0.0 0.0 0.0 26.940967945119528" Properties=species:S:1:pos:R:3:forces:R:3 tau=tau19 tau_p=1 tau_q=9 stage=B constraint=xy_fixed_z_free force_label=raw_dft energy=-15500.318249326898 free_energy=-15500.318249326898 stress="0.006926581049064663 -0.0003342093719326004 0.005708185893694991 -0.0003342093719326004 0.006844865021311912 -0.005705431420849393 0.005708185893694991 -0.005705431420849393 -0.002663575241693609" pbc="T T T"
Sr       0.00003612       0.00009431      10.76310012      -0.00182497       0.00172290      -0.08013100
Sr       0.39399699       3.54684090      14.74032828      -0.23690170       0.23675001      -0.06108144
Ti       1.97047269       1.97057450      12.34488044       0.27100327      -0.27114468      -0.04576846
Ti       2.36429575       1.57631578      16.28353832      -0.04859051       0.04781506       0.07121596
O        0.00000902       1.97050521      12.40606906       0.78753096       0.28308437      -0.00406851
O        0.39428297       1.57638358      16.39767592      -0.00422664       0.01629025       0.07638902
O        1.97049401       3.94093312      12.40574143      -0.28317539      -0.78699874      -0.00299251
O        2.36466641       3.54685933      16.39362575      -0.01603006       0.00487507       0.09081111
O        1.97043419       1.97038596      10.48032125       0.14897769      -0.14860719      -0.08733215
O        2.36463656       1.57633185      14.46003939      -0.61676291       0.61621321       0.04295773
10
Lattice="3.940949890606662 0.0 0.0 0.0 3.940949890606662 0.0 0.0 0.0 26.940967945119528" Properties=species:S:1:pos:R:3:forces:R:3 tau=tau19 tau_p=1 tau_q=9 stage=B constraint=xy_fixed_z_free force_label=raw_dft energy=-15500.320488551673 free_energy=-15500.320488551673 stress="0.007120312305871748 -0.0003342093719326004 0.005654014594398224 -0.0003342093719326004 0.007074404425111776 -0.005652178279167825 0.005654014594398224 -0.005652178279167825 -0.0019988291282892062" pbc="T T T"
Sr       0.00003612       0.00009431      10.75940154      -0.00180080       0.00170053      -0.09012925
Sr       0.39399699       3.54684090      14.74448422      -0.23053437       0.23036133      -0.05790716
Ti       1.97047269       1.97057450      12.33828628       0.27284135      -0.27294754      -0.01504815
Ti       2.36429575       1.57631578      16.28870535      -0.04943666       0.04879568       0.05361496
O        0.00000902       1.97050521      12.40246796       0.77689070       0.28098327      -0.01561020
O        0.39428297       1.57638358      16.40292280      -0.00385048       0.01584931       0.06906292
O        1.97049401       3.94093312      12.40226651      -0.28106477      -0.77660094      -0.01490983
O        2.36466641       3.54685933      16.40067815      -0.01555517       0.00433411       0.07701740
O        1.97043419       1.97038596      10.47215385       0.14515780      -0.14481559      -0.03038093
O        2.36463656       1.57633185      14.46395329      -0.61264812       0.61233959       0.02429024
10
Lattice="3.940949890606662 0.0 0.0 0.0 3.940949890606662 0.0 0.0 0.0 26.940967945119528" Properties=species:S:1:pos:R:3:forces:R:3 tau=tau19 tau_p=1 tau_q=9 stage=B constraint=xy_fixed_z_free force_label=raw_dft energy=-15500.322799478448 free_energy=-15500.322799478448 stress="0.0075233834989443076 -0.0003314548990870021 0.005581480142797467 -0.0003314548990870021 0.0075344013903267 -0.005581480142797467 0.005581480142797467 -0.005581480142797467 -0.0009163212999690527" pbc="T T T"
Sr       0.00003612       0.00009431      10.75176499      -0.00167713       0.00157994      -0.09123097
Sr       0.39399699       3.54684090      14.74947940      -0.22237985       0.22217597      -0.03842334
Ti       1.97047269       1.97057450      12.32853731       0.27653551      -0.27660879       0.02612678
Ti       2.36429575       1.57631578      16.29745824      -0.05080166       0.05036174       0.02592752
O        0.00000902       1.97050521      12.39656991       0.76083211       0.27767708      -0.03279108
O        0.39428297       1.57638358      16.41219514      -0.00334166       0.01517362       0.04987477
O        1.97049401       3.94093312      12.39656789      -0.27774753      -0.76091464      -0.03269620
O        2.36466641       3.54685933      16.41274272      -0.01482524       0.00358489       0.04789914
O        1.97043419       1.97038596      10.45990275       0.13967081      -0.13936613       0.04434922
O        2.36463656       1.57633185      14.47010162      -0.60626535       0.60633606       0.00096391
10
Lattice="3.940949890606662 0.0 0.0 0.0 3.940949890606662 0.0 0.0 0.0 26.940967945119528" Properties=species:S:1:pos:R:3:forces:R:3 tau=tau19 tau_p=1 tau_q=9 stage=B constraint=xy_fixed_z_free force_label=raw_dft energy=-15500.32374725095 free_energy=-15500.32374725095 stress="0.007893401017869686 -0.0003268641110110048 0.005535572262037494 -0.0003268641110110048 0.007945736001936054 -0.005536490419652694 0.005535572262037494 -0.005536490419652694 -0.00011752417474552982" pbc="T T T"
Sr       0.00003612       0.00009431      10.74403974      -0.00149972       0.00140048      -0.07448409
Sr       0.39399699       3.54684090      14.75228953      -0.21762203       0.21739629      -0.01605962
Ti       1.97047269       1.97057450      12.32210585       0.27986561      -0.27990032       0.04676682
Ti       2.36429575       1.57631578      16.30446993      -0.05170437       0.05140561       0.00685739
O        0.00000902       1.97050521      12.39142570       0.74862656       0.27533147      -0.03819040
O        0.39428297       1.57638358      16.42012283      -0.00303982       0.01464680       0.02866883
O        1.97049401       3.94093312      12.39157064      -0.27540372      -0.74897752      -0.03855292
O        2.36466641       3.54685933      16.42264637      -0.01426577       0.00311952       0.01980829
O        1.97043419       1.97038596      10.45195839       0.13616665      -0.13589052       0.07579741
O        2.36463656       1.57633185      14.47469097      -0.60112340       0.60146819      -0.01061171
10
Lattice="3.940949890606662 0.0 0.0 0.0 3.940949890606662 0.0 0.0 0.0 26.940967945119528" Properties=species:S:1:pos:R:3:forces:R:3 tau=tau19 tau_p=1 tau_q=9 stage=B constraint=xy_fixed_z_free force_label=raw_dft energy=-15500.324192157075 free_energy=-15500.324192157075 stress="0.008106413584595958 -0.00032227332293500755 0.0055227180554247015 -0.00032227332293500755 0.008173439090505519 -0.005523636213039901 0.0055227180554247015 -0.005523636213039901 0.00020658546341987663" pbc="T T T"
Sr       0.00003612       0.00009431      10.73893544      -0.00131820       0.00122153      -0.05069650
Sr       0.39399699       3.54684090      14.75289284      -0.21665941       0.21642647      -0.00285624
Ti       1.97047269       1.97057450      12.32042658       0.28196388      -0.28198831       0.04276593
Ti       2.36429575       1.57631578      16.30772761      -0.05193603       0.05166400       0.00077904
O        0.00000902       1.97050521      12.38841610       0.74301205       0.27455602      -0.03017138
O        0.39428297       1.57638358      16.42426118      -0.00294108       0.01440049       0.01436141
O        1.97049401       3.94093312      12.38861550      -0.27463058      -0.74345762      -0.03071646
O        2.36466641       3.54685933      16.42742315      -0.01400711       0.00298017       0.00333883
O        1.97043419       1.97038596      10.45004201       0.13527139      -0.13500066       0.06423798
O        2.36463656       1.57633185      14.47657955      -0.59875465       0.59919791      -0.01104289
10
Lattice="3.940949890606662 0.0 0.0 0.0 3.940949890606662 0.0 0.0 0.0 26.940967945119528" Properties=species:S:1:pos:R:3:forces:R:3 tau=tau19 tau_p=1 tau_q=9 stage=B constraint=xy_fixed_z_free force_label=raw_dft energy=-15500.324553388196 free_energy=-15500.324553388196 stress="0.008285454319559852 -0.0003158462196286114 0.005524554370655101 -0.0003158462196286114 0.008351561667854212 -0.005525472528270301 0.005524554370655101 -0.005525472528270301 0.0003553269970821878" pbc="T T T"
Sr       0.00003612       0.00009431      10.73366934      -0.00106752       0.00097342      -0.01470568
Sr       0.39399699       3.54684090      14.75255072      -0.21753975       0.21730733       0.00696692
Ti       1.97047269       1.97057450      12.32114446       0.28416423      -0.28417786       0.01982269
Ti       2.36429575       1.57631578      16.30983775      -0.05195711       0.05166400      -0.00165091
O        0.00000902       1.97050521      12.38561729       0.73930863       0.27447606      -0.00996971
O        0.39428297       1.57638358      16.42747472      -0.00291229       0.01422437       0.00050702
O        1.97049401       3.94093312      12.38582760      -0.27455859      -0.73976963      -0.01057263
O        2.36466641       3.54685933      16.43057837      -0.01382919       0.00297374      -0.01024405
O        1.97043419       1.97038596      10.45113703       0.13561232      -0.13534184       0.02394134
O        2.36463656       1.57633185      14.47748268      -0.59722021       0.59767041      -0.00409500
