10
Lattice="3.940949890606662 0.0 0.0 0.0 3.940949890606662 0.0 0.0 0.0 26.940967945119528" Properties=species:S:1:pos:R:3:forces:R:3 tau=tau69 tau_p=6 tau_q=9 stage=A constraint=rigid_scf force_label=raw_dft energy=-15497.554915063722 free_energy=-15497.554915063722 stress="0.019865258162455338 0.000953047604577031 -0.012003992661117633 0.000953047604577031 0.005288587863548842 -0.0005738485094996574 -0.012003992661117633 -0.0005738485094996574 -0.029133141130278605" pbc="T T T"
Sr       0.00003626       0.00009419      10.75260867      -0.00696640       0.00721297       0.34311423
Sr       2.36447180       3.54684071      14.64522241       0.67756410       0.57974365       4.48809068
Ti       1.97047258       1.97057465      12.38212169      -0.39643634      -0.89407541      -2.60567241
Ti       0.39382070       1.57631572      16.28444791       0.13238379      -0.02716499       0.14010841
O        0.00000906       1.97050529      12.45001441      -1.41336729       0.81828263      -3.15262370
O        2.36475792       1.57638350      16.39256827      -0.01742539      -0.08566916      -0.28058115
O        1.97049386       3.94093294      12.44909065      -0.10360055       0.04400726      -1.29006927
O        0.39419154       3.54685924      16.37955485       0.03589003      -0.00076696      -0.04881548
O        1.97043435       1.97038588      10.49176941      -0.18596378      -0.06250480       0.31335603
O        0.39416159       1.57633188      14.44792112       1.27792183      -0.37906494       2.09309292
