10
Lattice="3.940949890606662 0.0 0.0 0.0 3.940949890606662 0.0 0.0 0.0 26.940967945119528" Properties=species:S:1:pos:R:3:forces:R:3 energy=-15497.565970368703 free_energy=-15497.565970368703 stress="0.005217889727178484 0.0 -1.8363152303989035e-06 0.0 0.019754161091016204 0.013205860979413715 -1.8363152303989035e-06 0.013205860979413715 -0.03246788958868301" pbc="T T T"
Sr       0.00003626       0.00009419      10.75260867      -0.00007148       0.00451949       0.28197083
Sr       3.94085176       1.57636577      14.64522241       0.00008896      -0.66109721       4.62403956
Ti       1.97047258       1.97057465      12.38212169      -0.00009282       0.34211716      -2.29940003
Ti       1.97020066       3.54679066      16.28444791      -0.00027228      -0.14861748       0.31394249
O        0.00000906       1.97050529      12.45001441      -0.00004782       0.22049369      -1.50493147
O        0.00018798       3.54685845      16.39256827       0.00007765      -0.04576024      -0.10014318
O        1.97049386       3.94093294      12.44909065      -0.00004062       1.55139362      -3.63360846
O        1.97057150       1.57638429      16.37955485       0.00038695       0.01641598      -0.26078597
O        1.97043435       1.97038588      10.49176941       0.00009127       0.20209745       0.27953368
O        1.97054155       3.54680682      14.44792112      -0.00011956      -1.48156246       2.29938229
10
Lattice="3.940949890606662 0.0 0.0 0.0 3.940949890606662 0.0 0.0 0.0 26.940967945119528" Properties=species:S:1:pos:R:3:forces:R:3 energy=-15498.339016532083 free_energy=-15498.339016532083 stress="0.0032897587352596356 0.0 -9.181576151994517e-07 0.0 0.014961378339675065 0.009872030678624504 -9.181576151994517e-07 0.009872030678624504 -0.028901765411248344" pbc="T T T"
Sr       0.00003612       0.00009431      10.75841216      -0.00010593       0.00252817       0.24049533
Sr       3.94085191       1.57636594      14.74039338       0.00010207      -0.39181041       2.81538084
Ti       1.97047269       1.97057450      12.33479636      -0.00003522       0.33092206      -1.38865230
Ti       1.97020076       3.54679074      16.29090939       0.00015967      -0.11961672       0.65415626
O        0.00000902       1.97050521      12.41904039      -0.00009153       0.02228709      -0.51151892
O        0.00018798       3.54685853      16.39050721      -0.00034581      -0.03730439       0.14887330
O        1.97049401       3.94093312      12.37430473      -0.00001568       1.09863161      -2.44032503
O        1.97057142       1.57638437      16.37418739       0.00026071       0.01790413       0.02991093
O        1.97043419       1.97038596      10.49752267       0.00009410       0.17074465      -0.40251828
O        1.97054157       3.54680681      14.49524629      -0.00002185      -1.09428593       0.85419786
10
Lattice="3.940949890606662 0.0 0.0 0.0 3.940949890606662 0.0 0.0 0.0 26.940967945119528" Properties=species:S:1:pos:R:3:forces:R:3 energy=-15498.812438691952 free_energy=-15498.812438691952 stress="0.0007400350378507581 0.0 -0.0 0.0 0.00941295187102478 0.007303025671296439 -0.0 0.007303025671296439 -0.02553763590915755" pbc="T T T"
Sr       0.00003612       0.00009431      10.76713842      -0.00011081       0.00005116      -0.00794728
Sr       3.94085191       1.57636594      14.84508113       0.00018512      -0.21788608       1.17582435
Ti       1.97047269       1.97057450      12.28312470       0.00000257       0.30672798      -0.59191191
Ti       1.97020076       3.54679074      16.31377787       0.00052785      -0.09520872       0.34557221
O        0.00000902       1.97050521      12.39874726      -0.00009976      -0.09189508       0.06216645
O        0.00018798       3.54685853      16.39538314      -0.00063583      -0.02904447       0.51692569
O        1.97049401       3.94093312      12.28427995       0.00000668       0.76582699      -1.35565759
O        1.97057142       1.57638437      16.37470631       0.00005682       0.01537700       0.45603297
O        1.97043419       1.97038596      10.48435609       0.00009050       0.14260752      -0.91732513
O        1.97054157       3.54680681      14.52872509      -0.00002340      -0.79655604       0.31632051
10
Lattice="3.940949890606662 0.0 0.0 0.0 3.940949890606662 0.0 0.0 0.0 26.940967945119528" Properties=species:S:1:pos:R:3:forces:R:3 energy=-15499.040733222826 free_energy=-15499.040733222826 stress="-0.0019318036223796462 0.0 -0.0 0.0 0.004184962410079101 0.005438247554826353 -0.0 0.005438247554826353 -0.021948557791342894" pbc="T T T"
Sr       0.00003612       0.00009431      10.77111911      -0.00013473      -0.00277216      -0.45793044
Sr       3.94085191       1.57636594      14.94587804       0.00025094      -0.12020576      -0.09232523
Ti       1.97047269       1.97057450      12.23287643       0.00001748       0.28468308      -0.38039523
Ti       1.97020076       3.54679074      16.33745708       0.00088754      -0.07403157       0.19152739
O        0.00000902       1.97050521      12.38898716      -0.00009153      -0.14598904       0.32145063
O        0.00018798       3.54685853      16.41736251      -0.00083535      -0.02269050       0.78157114
O        1.97049401       3.94093312      12.18499647       0.00003497       0.53207077      -0.33453215
O        1.97057142       1.57638437      16.39210510      -0.00016249       0.01319953       0.78187427
O        1.97043419       1.97038596      10.44377769       0.00007790       0.11607348      -0.81470752
O        1.97054157       3.54680681      14.56076038      -0.00004499      -0.58033809       0.00346688
10
Lattice="3.940949890606662 0.0 0.0 0.0 3.940949890606662 0.0 0.0 0.0 26.940967945119528" Properties=species:S:1:pos:R:3:forces:R:3 energy=-15499.12676595857 free_energy=-15499.12676595857 stress="-0.0020649364765835667 0.0 -0.0 0.0 0.002731518905218369 0.004691785413669198 -0.0 0.004691785413669198 -0.01935384437078924" pbc="T T T"
Sr       0.00003612       0.00009431      10.76015470      -0.00015221      -0.00396978      -0.65556600
Sr       3.94085191       1.57636594      14.99005939       0.00024246      -0.08893214      -0.46824288
Ti       1.97047269       1.97057450      12.19840314       0.00001671       0.27178052      -0.27897601
Ti       1.97020076       3.54679074      16.35271623       0.00097213      -0.06585264       0.25750344
O        0.00000902       1.97050521      12.39120879      -0.00007199      -0.15887412       0.24568099
O        0.00018798       3.54685853      16.44698115      -0.00084075      -0.02009883       0.75176023
O        1.97049401       3.94093312      12.13174928       0.00004757       0.44256707       0.05931638
O        1.97057142       1.57638437      16.41971914      -0.00021392       0.01197388       0.78004545
O        1.97043419       1.97038596      10.40725251       0.00007045       0.10240678      -0.61994517
O        1.97054157       3.54680681      14.57707563      -0.00007019      -0.49100074      -0.07157643
10
Lattice="3.940949890606662 0.0 0.0 0.0 3.940949890606662 0.0 0.0 0.0 26.940967945119528" Properties=species:S:1:pos:R:3:forces:R:3 energy=-15499.226632281583 free_energy=-15499.226632281583 stress="-0.0003764446222317752 0.0 -9.181576151994517e-07 0.0 0.0027967080958975297 0.004008676147960806 -9.181576151994517e-07 0.004008676147960806 -0.015076148041574998" pbc="T T T"
Sr       0.00003612       0.00009431      10.72973488      -0.00014192      -0.00484216      -0.76397528
Sr       3.94085191       1.57636594      15.02950639       0.00019155      -0.06408757      -0.62535220
Ti       1.97047269       1.97057450      12.15133793       0.00000283       0.25606542      -0.11068573
Ti       1.97020076       3.54679074      16.37776843       0.00095311      -0.06003449       0.33757068
O        0.00000902       1.97050521      12.39730817      -0.00005939      -0.16638380      -0.00132952
O        0.00018798       3.54685853      16.49858356      -0.00073842      -0.01736780       0.55904653
O        1.97049401       3.94093312      12.07317736       0.00004834       0.36375556       0.32842526
O        1.97057142       1.57638437      16.46987927      -0.00019206       0.01046927       0.60942987
O        1.97043419       1.97038596      10.35277049       0.00006428       0.08762602      -0.33985176
O        1.97054157       3.54680681      14.59525348      -0.00012856      -0.40520020       0.00672215
10
Lattice="3.940949890606662 0.0 0.0 0.0 3.940949890606662 0.0 0.0 0.0 26.940967945119528" Properties=species:S:1:pos:R:3:forces:R:3 energy=-15499.325374094158 free_energy=-15499.325374094158 stress="0.003946241430127243 0.0 -1.8363152303989035e-06 0.0 0.0050177313670650035 0.003393510545777173 -1.8363152303989035e-06 0.003393510545777173 -0.008560901604119688" pbc="T T T"
Sr       0.00003612       0.00009431      10.66814193      -0.00015941      -0.00492161      -0.70954631
Sr       3.94085191       1.57636594      15.05984669       0.00008510      -0.04575818      -0.49937560
Ti       1.97047269       1.97057450      12.09091467       0.00000154       0.23784890       0.08640115
Ti       1.97020076       3.54679074      16.41966157       0.00071759      -0.05567981       0.42648379
O        0.00000902       1.97050521      12.40208708      -0.00001877      -0.16841934      -0.39665283
O        0.00018798       3.54685853      16.57796521      -0.00046743      -0.01480518       0.18541665
O        1.97049401       3.94093312      12.01104364       0.00005759       0.29493947       0.41209307
O        1.97057142       1.57638437      16.54911888      -0.00005348       0.00889216       0.24423475
O        1.97043419       1.97038596      10.27647959       0.00004859       0.07192378       0.02785867
O        1.97054157       3.54680681      14.62006070      -0.00021134      -0.32402019       0.22308639
10
Lattice="3.940949890606662 0.0 0.0 0.0 3.940949890606662 0.0 0.0 0.0 26.940967945119528" Properties=species:S:1:pos:R:3:forces:R:3 energy=-15499.373599605271 free_energy=-15499.373599605271 stress="0.007593163477699466 0.0 -1.8363152303989035e-06 0.0 0.007655598195533029 0.003200697446585289 -1.8363152303989035e-06 0.003200697446585289 -0.0045246807277028985" pbc="T T T"
Sr       0.00003612       0.00009431      10.61653986      -0.00014861      -0.00429528      -0.50730745
Sr       3.94085191       1.57636594      15.06075130       0.00001697      -0.04282249      -0.24951656
Ti       1.97047269       1.97057450      12.06224045      -0.00000489       0.23019729       0.13306693
Ti       1.97020076       3.54679074      16.45279226       0.00050702      -0.05541422       0.39095320
O        0.00000902       1.97050521      12.39496720      -0.00000926      -0.16551091      -0.57245458
O        0.00018798       3.54685853      16.62563655      -0.00027151      -0.01337462      -0.03454354
O        1.97049401       3.94093312      11.98991733       0.00004808       0.27150669       0.29551206
O        1.97057142       1.57638437      16.59831263       0.00006788       0.00808123       0.01376414
O        1.97043419       1.97038596      10.23547224       0.00004345       0.06517207       0.17971908
O        1.97054157       3.54680681      14.63869014      -0.00024888      -0.29354028       0.35080671
10
Lattice="3.940949890606662 0.0 0.0 0.0 3.940949890606662 0.0 0.0 0.0 26.940967945119528" Properties=species:S:1:pos:R:3:forces:R:3 energy=-15499.413879664411 free_energy=-15499.413879664411 stress="0.01101697322477822 0.0 -1.8363152303989035e-06 0.0 0.010646037548237642 0.003123572206908535 -1.8363152303989035e-06 0.003123572206908535 -0.001339591960576" pbc="T T T"
Sr       0.00003612       0.00009431      10.55901800      -0.00012804      -0.00302105      -0.19586921
Sr       3.94085191       1.57636594      15.05052902      -0.00002905      -0.04514806       0.05461075
Ti       1.97047269       1.97057450      12.04439098      -0.00001825       0.22583233       0.07597096
Ti       1.97020076       3.54679074      16.49113846       0.00028025      -0.05614955       0.25531234
O        0.00000902       1.97050521      12.37299242      -0.00000797      -0.15995604      -0.60440053
O        0.00018798       3.54685853      16.66419116      -0.00011081      -0.01209627      -0.16267035
O        1.97049401       3.94093312      11.98384291       0.00003574       0.25868435       0.11176585
O        1.97057142       1.57638437      16.63967148       0.00018101       0.00708287      -0.13413857
O        1.97043419       1.97038596      10.20628818       0.00005014       0.06019724       0.21186790
O        1.97054157       3.54680681      14.66325736      -0.00025325      -0.27542583       0.38755112
10
Lattice="3.940949890606662 0.0 0.0 0.0 3.940949890606662 0.0 0.0 0.0 26.940967945119528" Properties=species:S:1:pos:R:3:forces:R:3 energy=-15499.43826296915 free_energy=-15499.43826296915 stress="0.012663229828830839 0.0 -1.8363152303989035e-06 0.0 0.01247408936009975 0.003075828010918163 -1.8363152303989035e-06 0.003075828010918163 9.181576151994517e-06" pbc="T T T"
Sr       0.00003612       0.00009431      10.51754103      -0.00011544      -0.00202423       0.05770815
Sr       3.94085191       1.57636594      15.04372840      -0.00004885      -0.04769088       0.24053878
Ti       1.97047269       1.97057450      12.03624651      -0.00002700       0.22263439      -0.02909872
Ti       1.97020076       3.54679074      16.52239255       0.00018409      -0.05709212       0.09010148
O        0.00000902       1.97050521      12.34251812      -0.00001517      -0.15435489      -0.50119851
O        0.00018798       3.54685853      16.68380903      -0.00006633      -0.01095444      -0.15797295
O        1.97049401       3.94093312      11.98490506       0.00002571       0.25073604       0.00403380
O        1.97057142       1.57638437      16.66193540       0.00024297       0.00622567      -0.14538020
O        1.97043419       1.97038596      10.19370378       0.00005476       0.05688720       0.12949541
O        1.97054157       3.54680681      14.68854008      -0.00023526      -0.26436700       0.31177300
10
Lattice="3.940949890606662 0.0 0.0 0.0 3.940949890606662 0.0 0.0 0.0 26.940967945119528" Properties=species:S:1:pos:R:3:forces:R:3 energy=-15499.455302193499 free_energy=-15499.455302193499 stress="0.012923068433932284 0.0 -1.8363152303989035e-06 0.0 0.013113127060278569 0.002971158042785426 -1.8363152303989035e-06 0.002971158042785426 0.0001726136316574969" pbc="T T T"
Sr       0.00003612       0.00009431      10.49067419      -0.00011364      -0.00155063       0.20975085
Sr       3.94085191       1.57636594      15.04837259      -0.00004911      -0.04762737       0.29521844
Ti       1.97047269       1.97057450      12.02806975      -0.00001954       0.21643932      -0.11915778
Ti       1.97020076       3.54679074      16.54742466       0.00016738      -0.05616806      -0.03363080
O        0.00000902       1.97050521      12.30743694      -0.00002674      -0.14878511      -0.34446972
O        0.00018798       3.54685853      16.69392576      -0.00010336      -0.00975554      -0.08514054
O        1.97049401       3.94093312      11.98341321       0.00002083       0.24020788      -0.01245957
O        1.97057142       1.57638437      16.67412650       0.00026637       0.00552376      -0.08159653
O        1.97043419       1.97038596      10.18701762       0.00006299       0.05342084       0.00246492
O        1.97054157       3.54680681      14.71485875      -0.00020517      -0.25170509       0.16902072
10
Lattice="3.940949890606662 0.0 0.0 0.0 3.940949890606662 0.0 0.0 0.0 26.940967945119528" Properties=species:S:1:pos:R:3:forces:R:3 energy=-15499.469560414418 free_energy=-15499.469560414418 stress="0.01229321230990546 0.0 -1.8363152303989035e-06 0.0 0.01280921688964755 0.002778344943593541 -1.8363152303989035e-06 0.002778344943593541 -0.00028462886071183003" pbc="T T T"
Sr       0.00003612       0.00009431      10.47329643      -0.00011159      -0.00145062       0.25667863
Sr       3.94085191       1.57636594      15.06735238      -0.00004577      -0.04432942       0.23779567
Ti       1.97047269       1.97057450      12.01307288      -0.00001363       0.20485830      -0.16080862
Ti       1.97020076       3.54679074      16.56982573       0.00021366      -0.05323186      -0.09248772
O        0.00000902       1.97050521      12.26802426      -0.00003188      -0.14215089      -0.18584654
O        0.00018798       3.54685853      16.70311019      -0.00019026      -0.00841239       0.01011061
O        1.97049401       3.94093312      11.97506724       0.00001903       0.22427450       0.03573396
O        1.97057142       1.57638437      16.68488288       0.00026328       0.00496531       0.01113853
O        1.97043419       1.97038596      10.17736995       0.00006916       0.04893221      -0.11750224
O        1.97054157       3.54680681      14.74331803      -0.00017201      -0.23345514       0.00518771
10
Lattice="3.940949890606662 0.0 0.0 0.0 3.940949890606662 0.0 0.0 0.0 26.940967945119528" Properties=species:S:1:pos:R:3:forces:R:3 energy=-15499.480546738538 free_energy=-15499.480546738538 stress="0.011295174982183655 0.0 -1.8363152303989035e-06 0.0 0.01195441214989686 0.0025304423874896887 -1.8363152303989035e-06 0.0025304423874896887 -0.0007877792338411295" pbc="T T T"
Sr       0.00003612       0.00009431      10.46225435      -0.00011699      -0.00166942       0.20330895
Sr       3.94085191       1.57636594      15.09747102      -0.00004499      -0.03919261       0.11114262
Ti       1.97047269       1.97057450      11.98934938      -0.00000360       0.18870200      -0.14812202
Ti       1.97020076       3.54679074      16.59025772       0.00029928      -0.04835705      -0.08634896
O        0.00000902       1.97050521      12.22918633      -0.00003497      -0.13432677      -0.07630854
O        0.00018798       3.54685853      16.71699422      -0.00028462      -0.00707362       0.08076504
O        1.97049401       3.94093312      11.96011263       0.00001774       0.20534990       0.10623773
O        1.97057142       1.57638437      16.69987391       0.00024220       0.00456088       0.08442063
O        1.97043419       1.97038596      10.15945090       0.00007456       0.04364345      -0.16747266
O        1.97054157       3.54680681      14.77036952      -0.00014861      -0.21163676      -0.10762252
10
Lattice="3.940949890606662 0.0 0.0 0.0 3.940949890606662 0.0 0.0 0.0 26.940967945119528" Properties=species:S:1:pos:R:3:forces:R:3 energy=-15499.487712448308 free_energy=-15499.487712448308 stress="0.010571666781406487 0.0 -1.8363152303989035e-06 0.0 0.011242839998117286 0.002299066668459427 -1.8363152303989035e-06 0.002299066668459427 -0.0007583981901547472" pbc="T T T"
Sr       0.00003612       0.00009431      10.45231961      -0.00012161      -0.00196947       0.11066876
Sr       3.94085191       1.57636594      15.12842057      -0.00005091      -0.03458622       0.00010670
Ti       1.97047269       1.97057450      11.96079737       0.00000771       0.17240172      -0.10421298
Ti       1.97020076       3.54679074      16.60930887       0.00036510      -0.04370155      -0.05290996
O        0.00000902       1.97050521      12.19553473      -0.00003651      -0.12626379      -0.03487239
O        0.00018798       3.54685853      16.73721496      -0.00033373      -0.00596496       0.09429135
O        1.97049401       3.94093312      11.94404403       0.00001620       0.18854645       0.14324721
O        1.97057142       1.57638437      16.72104668       0.00022446       0.00426957       0.10126444
O        1.97043419       1.97038596      10.13415613       0.00007893       0.03864728      -0.13201612
O        1.97054157       3.54680681      14.79247702      -0.00014938      -0.19137904      -0.12556702
10
Lattice="3.940949890606662 0.0 0.0 0.0 3.940949890606662 0.0 0.0 0.0 26.940967945119528" Properties=species:S:1:pos:R:3:forces:R:3 energy=-15499.491703405922 free_energy=-15499.491703405922 stress="0.010303564757768247 0.0 -1.8363152303989035e-06 0.0 0.011015136909547822 0.0021292075096475283 -1.8363152303989035e-06 0.0021292075096475283 -0.00026259307794704317" pbc="T T T"
Sr       0.00003612       0.00009431      10.44147824      -0.00012650      -0.00217927       0.03838091
Sr       3.94085191       1.57636594      15.15215696      -0.00006633      -0.03176958      -0.04921014
Ti       1.97047269       1.97057450      11.93372041       0.00001131       0.15883633      -0.04788705
Ti       1.97020076       3.54679074      16.62649920       0.00039132      -0.04021308      -0.01938766
O        0.00000902       1.97050521      12.16725204      -0.00003420      -0.11892612      -0.03327265
O        0.00018798       3.54685853      16.75956306      -0.00033553      -0.00516946       0.06153961
O        1.97049401       3.94093312      11.93294656       0.00001260       0.17699037       0.12540941
O        1.97057142       1.57638437      16.74448586       0.00022343       0.00405489       0.06935011
O        1.97043419       1.97038596      10.10803003       0.00008253       0.03461502      -0.06031859
O        1.97054157       3.54680681      14.80918761      -0.00015864      -0.17623884      -0.08460395
10
Lattice="3.940949890606662 0.0 0.0 0.0 3.940949890606662 0.0 0.0 0.0 26.940967945119528" Properties=species:S:1:pos:R:3:forces:R:3 energy=-15499.493206698824 free_energy=-15499.493206698824 stress="0.010306319230613845 0.0 -1.8363152303989035e-06 0.0 0.01117122370413173 0.0020658546341987666 -1.8363152303989035e-06 0.0020658546341987666 0.0001955675720374832" pbc="T T T"
Sr       0.00003612       0.00009431      10.43556716      -0.00013087      -0.00227594       0.01188004
Sr       3.94085191       1.57636594      15.16105247      -0.00007662      -0.03117411      -0.04431116
Ti       1.97047269       1.97057450      11.91975058       0.00002005       0.15253249      -0.01172166
Ti       1.97020076       3.54679074      16.63527298       0.00038001      -0.03923195      -0.00375458
O        0.00000902       1.97050521      12.15110968      -0.00003574      -0.11493037      -0.03383623
O        0.00018798       3.54685853      16.77231863      -0.00031676      -0.00474317       0.02471293
O        1.97049401       3.94093312      11.93199966       0.00001131       0.17379089       0.07897195
O        1.97057142       1.57638437      16.75814517       0.00023114       0.00402095       0.03077328
O        1.97043419       1.97038596      10.09393454       0.00008562       0.03276614      -0.01253516
O        1.97054157       3.54680681      14.81616908      -0.00016789      -0.17075467      -0.04017966
10
Lattice="3.940949890606662 0.0 0.0 0.0 3.940949890606662 0.0 0.0 0.0 26.940967945119528" Properties=species:S:1:pos:R:3:forces:R:3 energy=-15499.493878139723 free_energy=-15499.493878139723 stress="0.010303564757768247 0.0 -1.8363152303989035e-06 0.0 0.011388827058934 0.002071363579889963 -1.8363152303989035e-06 0.002071363579889963 0.00039848040499656205" pbc="T T T"
Sr       0.00003612       0.00009431      10.43572853      -0.00013061      -0.00234125       0.00646967
Sr       3.94085191       1.57636594      15.16021522      -0.00008202      -0.03171610      -0.02355645
Ti       1.97047269       1.97057450      11.91680006       0.00002263       0.15114281       0.00153495
Ti       1.97020076       3.54679074      16.63645174       0.00036381      -0.03943712      -0.00001414
O        0.00000902       1.97050521      12.14459729      -0.00003728      -0.11364379      -0.02375648
O        0.00018798       3.54685853      16.77536610      -0.00030005      -0.00462439       0.00221835
O        1.97049401       3.94093312      11.93766357       0.00001028       0.17599587       0.03398716
O        1.97057142       1.57638437      16.76178268       0.00023860       0.00405360       0.00586726
O        1.97043419       1.97038596      10.09081743       0.00008767       0.03235785       0.00824527
O        1.97054157       3.54680681      14.81589734      -0.00017304      -0.17178774      -0.01099584
10
Lattice="3.940949890606662 0.0 0.0 0.0 3.940949890606662 0.0 0.0 0.0 26.940967945119528" Properties=species:S:1:pos:R:3:forces:R:3 energy=-15499.49419746531 free_energy=-15499.49419746531 stress="0.010239293724704286 0.0 -1.8363152303989035e-06 0.0 0.011540323065441909 0.0021145169878043373 -1.8363152303989035e-06 0.0021145169878043373 0.00036450857323418233" pbc="T T T"
Sr       0.00003612       0.00009431      10.44046286      -0.00013061      -0.00238778       0.00665993
Sr       3.94085191       1.57636594      15.15442760      -0.00008279      -0.03268052      -0.00495194
Ti       1.97047269       1.97057450      11.92070972       0.00002520       0.15258649       0.00261378
Ti       1.97020076       3.54679074      16.63244834       0.00035121      -0.04014315      -0.00003317
O        0.00000902       1.97050521      12.14500565      -0.00003805      -0.11414747      -0.00844505
O        0.00018798       3.54685853      16.77176172      -0.00029028      -0.00470975      -0.00603232
O        1.97049401       3.94093312      11.94600185       0.00000951       0.18097995       0.00151309
O        1.97057142       1.57638437      16.75844492       0.00024297       0.00410502      -0.00440096
O        1.97043419       1.97038596      10.09486113       0.00008819       0.03282990       0.00918398
O        1.97054157       3.54680681      14.81119618      -0.00017484      -0.17643270       0.00389214
