10
Lattice="3.940949890606662 0.0 0.0 0.0 3.940949890606662 0.0 0.0 0.0 26.940967945119528" Properties=species:S:1:pos:R:3:forces:R:3 tau=tau64 tau_p=6 tau_q=4 stage=B constraint=xy_fixed_z_free force_label=raw_dft energy=-15499.191378573216 free_energy=-15499.191378573216 stress="0.01095178403409906 -1.8363152303989035e-05 -0.0009714107568810199 -1.8363152303989035e-05 0.011481560978069143 0.0009732470721114188 -0.0009714107568810199 0.0009732470721114188 0.00038562619838376967" pbc="T T T"
Sr       0.00003626       0.00009419      10.26638885       0.00035995      -0.00067671      -0.35531386
Sr       2.36447180       1.57636577      15.37033788       0.08294944      -0.08383288       0.35732857
Ti       1.97047258       1.97057465      11.65989888      -0.07133834       0.07117148      -0.05105517
Ti       0.39382070       3.54679066      16.85242786       0.00379263      -0.00350956       0.08406762
O        0.00000906       1.97050529      11.80013088      -0.08181250      -0.05151797       0.15773461
O        2.36475792       3.54685845      17.01540190      -0.00188976       0.00547439      -0.31864633
O        1.97049386       3.94093294      11.80131987       0.05183061       0.08228893       0.15180924
O        0.39419154       1.57638429      17.03673702      -0.00480179       0.00174732      -0.39766970
O        1.97043435       1.97038588       9.85761185      -0.00944443       0.00982804      -0.03851384
O        0.39416159       3.54680682      15.01506362       0.03035393      -0.03097279       0.41025885
10
Lattice="3.940949890606662 0.0 0.0 0.0 3.940949890606662 0.0 0.0 0.0 26.940967945119528" Properties=species:S:1:pos:R:3:forces:R:3 tau=tau64 tau_p=6 tau_q=4 stage=B constraint=xy_fixed_z_free force_label=raw_dft energy=-15499.20482616701 free_energy=-15499.20482616701 stress="0.010812224076588743 -1.744499468878958e-05 -0.000959474707883427 -1.744499468878958e-05 0.011291502351722856 0.0009603928654986265 -0.000959474707883427 0.0009603928654986265 -0.00023229387664546128" pbc="T T T"
Sr       0.00003612       0.00009431      10.25907591       0.00015812      -0.00053299      -0.27610331
Sr       2.36447194       1.57636594      15.37769248       0.08190223      -0.08277178       0.30368508
Ti       1.97047269       1.97057450      11.65884811      -0.07028419       0.07003556       0.02547166
Ti       0.39382079       3.54679074      16.85415827       0.00384637      -0.00342574       0.07085935
O        0.00000902       1.97050521      11.80337753      -0.08064394      -0.05067696       0.10337043
O        2.36475793       3.54685853      17.00884370      -0.00188462       0.00546334      -0.23386240
O        1.97049401       3.94093312      11.80444438       0.05101506       0.08109671       0.09812332
O        0.39419145       1.57638437      17.02855252      -0.00481516       0.00167944      -0.30705528
O        1.97043419       1.97038596       9.85681943      -0.00920558       0.00959613      -0.08228430
O        0.39416160       3.54680681      15.02350763       0.02991196      -0.03046397       0.29779545
10
Lattice="3.940949890606662 0.0 0.0 0.0 3.940949890606662 0.0 0.0 0.0 26.940967945119528" Properties=species:S:1:pos:R:3:forces:R:3 tau=tau64 tau_p=6 tau_q=4 stage=B constraint=xy_fixed_z_free force_label=raw_dft energy=-15499.215941745202 free_energy=-15499.215941745202 stress="0.010689190956152016 -1.744499468878958e-05 -0.000949374974116233 -1.744499468878958e-05 0.01110236188299177 0.000951211289346632 -0.000949374974116233 0.000951211289346632 -0.0006555645372524085" pbc="T T T"
Sr       0.00003612       0.00009431      10.25072723       0.00004525      -0.00034016      -0.20346836
Sr       2.36447194       1.57636594      15.38682717       0.08095350      -0.08173383       0.24172355
Ti       1.97047269       1.97057450      11.65949812      -0.06928300       0.06911280       0.02579022
Ti       0.39382079       3.54679074      16.85629068       0.00390165      -0.00339797       0.05301126
O        0.00000902       1.97050521      11.80653862      -0.07951908      -0.04985832       0.05552040
O        2.36475793       3.54685853      17.00174691      -0.00197924       0.00546488      -0.13664153
O        1.97049401       3.94093312      11.80744800       0.05003675       0.07989035       0.05107419
O        0.39419145       1.57638437      17.01926430      -0.00489847       0.00165373      -0.20416590
O        1.97043419       1.97038596       9.85442795      -0.00891093       0.00934365      -0.05717002
O        0.39416160       3.54680681      15.03255098       0.02965330      -0.03013513       0.17432619
10
Lattice="3.940949890606662 0.0 0.0 0.0 3.940949890606662 0.0 0.0 0.0 26.940967945119528" Properties=species:S:1:pos:R:3:forces:R:3 tau=tau64 tau_p=6 tau_q=4 stage=B constraint=xy_fixed_z_free force_label=raw_dft energy=-15499.22431074237 free_energy=-15499.22431074237 stress="0.010502804960266527 -1.2854206612792324e-05 -0.0009374389251186402 -1.2854206612792324e-05 0.010813142234203944 0.0009392752403490391 -0.0009374389251186402 0.0009392752403490391 -0.0011458607037689158" pbc="T T T"
Sr       0.00003612       0.00009431      10.23864419      -0.00014038      -0.00010464      -0.10417930
Sr       2.36447194       1.57636594      15.40075949       0.07952216      -0.08014489       0.13696601
Ti       1.97047269       1.97057450      11.66068010      -0.06801648       0.06792649       0.01425342
Ti       0.39382079       3.54679074      16.85940540       0.00399009      -0.00334038       0.01329363
O        0.00000902       1.97050521      11.81028639      -0.07793939      -0.04881445      -0.00439273
O        2.36475793       3.54685853      16.99291866      -0.00203400       0.00542246      -0.00210342
O        1.97049401       3.94093312      11.81094473       0.04876740       0.07819290      -0.00757138
O        0.39419145       1.57638437      17.00671970      -0.00497791       0.00155809      -0.05912894
O        1.97043419       1.97038596       9.85114347      -0.00858594       0.00908319      -0.02094523
O        0.39416160       3.54680681      15.04381783       0.02941419      -0.02977877       0.03380795
10
Lattice="3.940949890606662 0.0 0.0 0.0 3.940949890606662 0.0 0.0 0.0 26.940967945119528" Properties=species:S:1:pos:R:3:forces:R:3 tau=tau64 tau_p=6 tau_q=4 stage=B constraint=xy_fixed_z_free force_label=raw_dft energy=-15499.22583961397 free_energy=-15499.22583961397 stress="0.010375181051753803 -1.1017891382393419e-05 -0.0009291755065818451 -1.1017891382393419e-05 0.010606556770784066 0.0009310118218122439 -0.0009291755065818451 0.0009310118218122439 -0.0013754001075687787" pbc="T T T"
Sr       0.00003612       0.00009431      10.23063098      -0.00025711       0.00003034      -0.04317808
Sr       2.36447194       1.57636594      15.41042064       0.07846904      -0.07898892       0.05680955
Ti       1.97047269       1.97057450      11.66146874      -0.06724463       0.06719372      -0.00448812
Ti       0.39382079       3.54679074      16.86102591       0.00405000      -0.00330592      -0.01277067
O        0.00000902       1.97050521      11.81171743      -0.07689810      -0.04815496      -0.03248846
O        2.36475793       3.54685853      16.98925244      -0.00205148       0.00534609       0.07056675
O        1.97049401       3.94093312      11.81218035       0.04800121       0.07706342      -0.03469807
O        0.39419145       1.57638437      16.99986727      -0.00498820       0.00148558       0.02539350
O        1.97043419       1.97038596       9.84926123      -0.00839671       0.00891916      -0.00439607
O        0.39416160       3.54680681      15.04949498       0.02931572      -0.02958851      -0.02075035
10
Lattice="3.940949890606662 0.0 0.0 0.0 3.940949890606662 0.0 0.0 0.0 26.940967945119528" Properties=species:S:1:pos:R:3:forces:R:3 tau=tau64 tau_p=6 tau_q=4 stage=B constraint=xy_fixed_z_free force_label=raw_dft energy=-15499.226129007036 free_energy=-15499.226129007036 stress="0.010368753948447409 -1.1017891382393419e-05 -0.0009273391913514462 -1.1017891382393419e-05 0.010568912308560888 0.0009291755065818451 -0.0009273391913514462 0.0009291755065818451 -0.001388254314181571" pbc="T T T"
Sr       0.00003612       0.00009431      10.22872128      -0.00028282       0.00005965      -0.03164462
Sr       2.36447194       1.57636594      15.41279351       0.07816436      -0.07865159       0.04030384
Ti       1.97047269       1.97057450      11.66141765      -0.06707700       0.06701812      -0.01014454
Ti       0.39382079       3.54679074      16.86093533       0.00404435      -0.00328407      -0.00506430
O        0.00000902       1.97050521      11.81120355      -0.07664690      -0.04801381      -0.03311761
O        2.36475793       3.54685853      16.99032774      -0.00205328       0.00531036       0.06978617
O        1.97049401       3.94093312      11.81159531       0.04785157       0.07678677      -0.03499400
O        0.39419145       1.57638437      16.99958593      -0.00497431       0.00147144       0.03021355
O        1.97043419       1.97038596       9.84896326      -0.00837074       0.00889396      -0.00828795
O        0.39416160       3.54680681      15.04977639       0.02934477      -0.02959057      -0.01705078
10
Lattice="3.940949890606662 0.0 0.0 0.0 3.940949890606662 0.0 0.0 0.0 26.940967945119528" Properties=species:S:1:pos:R:3:forces:R:3 tau=tau64 tau_p=6 tau_q=4 stage=B constraint=xy_fixed_z_free force_label=raw_dft energy=-15499.226498265518 free_energy=-15499.226498265518 stress="0.010377935524599402 -1.1017891382393419e-05 -0.0009255028761210473 -1.1017891382393419e-05 0.010539531264874506 0.0009264210337362467 -0.0009255028761210473 0.0009264210337362467 -0.0013717274771079808" pbc="T T T"
Sr       0.00003612       0.00009431      10.22661620      -0.00030930       0.00008665      -0.02149854
Sr       2.36447194       1.57636594      15.41540368       0.07779361      -0.07824690       0.02429435
Ti       1.97047269       1.97057450      11.66112967      -0.06689033       0.06682451      -0.01729607
Ti       0.39382079       3.54679074      16.86083936       0.00404152      -0.00326247       0.00707310
O        0.00000902       1.97050521      11.81018186      -0.07636382      -0.04785671      -0.03121345
O        2.36475793       3.54685853      16.99245973      -0.00205071       0.00526022       0.06154887
O        1.97049401       3.94093312      11.81048242       0.04768779       0.07646898      -0.03265455
O        0.39419145       1.57638437      16.99990594      -0.00495169       0.00145679       0.02960368
O        1.97043419       1.97038596       9.84854370      -0.00834709       0.00887133      -0.01466172
O        0.39416160       3.54680681      15.04975740       0.02939028      -0.02960265      -0.00519620
10
Lattice="3.940949890606662 0.0 0.0 0.0 3.940949890606662 0.0 0.0 0.0 26.940967945119528" Properties=species:S:1:pos:R:3:forces:R:3 tau=tau64 tau_p=6 tau_q=4 stage=B constraint=xy_fixed_z_free force_label=raw_dft energy=-15499.226995145385 free_energy=-15499.226995145385 stress="0.01039905314974899 -1.1017891382393419e-05 -0.0009218302456602495 -1.1017891382393419e-05 0.010494541541729734 0.000922748403275449 -0.0009218302456602495 0.000922748403275449 -0.0013340830148848033" pbc="T T T"
Sr       0.00003612       0.00009431      10.22339944      -0.00034401       0.00012161      -0.00855226
Sr       2.36447194       1.57636594      15.41930026       0.07719969      -0.07759795       0.00317840
Ti       1.97047269       1.97057450      11.66031521      -0.06659311       0.06651084      -0.02725601
Ti       0.39382079       3.54679074      16.86100934       0.00403380      -0.00323625       0.02531328
O        0.00000902       1.97050521      11.80824341      -0.07589691      -0.04758906      -0.02727735
O        2.36475793       3.54685853      16.99637498      -0.00204146       0.00517666       0.04538151
O        1.97049401       3.94093312      11.80839694       0.04741474       0.07595013      -0.02801217
O        0.39419145       1.57638437      17.00082808      -0.00490901       0.00143288       0.02621317
O        1.97043419       1.97038596       9.84761344      -0.00830929       0.00883560      -0.02436583
O        0.39416160       3.54680681      15.04983886       0.02944582      -0.02960420       0.01537700
10
Lattice="3.940949890606662 0.0 0.0 0.0 3.940949890606662 0.0 0.0 0.0 26.940967945119528" Properties=species:S:1:pos:R:3:forces:R:3 tau=tau64 tau_p=6 tau_q=4 stage=B constraint=xy_fixed_z_free force_label=raw_dft energy=-15499.227510256882 free_energy=-15499.227510256882 stress="0.010440370242432965 -1.1936048997592873e-05 -0.0009163212999690527 -1.1936048997592873e-05 0.010443124715278564 0.0009163212999690527 -0.0009163212999690527 0.0009163212999690527 -0.0012698119818208417" pbc="T T T"
Sr       0.00003612       0.00009431      10.21895821      -0.00038104       0.00015992       0.00560423
Sr       2.36447194       1.57636594      15.42450195       0.07634505      -0.07666798      -0.02105554
Ti       1.97047269       1.97057450      11.65864135      -0.06612260       0.06601564      -0.03932657
Ti       0.39382079       3.54679074      16.86187942       0.00402815      -0.00320565       0.04794619
O        0.00000902       1.97050521      11.80519692      -0.07520965      -0.04717409      -0.02197419
O        2.36475793       3.54685853      17.00224785      -0.00202860       0.00506070       0.02274552
O        1.97049401       3.94093312      11.80514545       0.04699257       0.07519011      -0.02174151
O        0.39419145       1.57638437      17.00244195      -0.00484730       0.00140074       0.02190503
O        1.97043419       1.97038596       9.84581927      -0.00825118       0.00877672      -0.03600804
O        0.39416160       3.54680681      15.05048759       0.02947461      -0.02955637       0.04190487
10
Lattice="3.940949890606662 0.0 0.0 0.0 3.940949890606662 0.0 0.0 0.0 26.940967945119528" Properties=species:S:1:pos:R:3:forces:R:3 tau=tau64 tau_p=6 tau_q=4 stage=B constraint=xy_fixed_z_free force_label=raw_dft energy=-15499.228055164846 free_energy=-15499.228055164846 stress="0.01050096864503613 -1.1936048997592873e-05 -0.0009071397238170583 -1.1936048997592873e-05 0.010371508421293007 0.0009071397238170583 -0.0009071397238170583 0.0009071397238170583 -0.0011816688507616945" pbc="T T T"
Sr       0.00003612       0.00009431      10.21256882      -0.00043117       0.00020929       0.02095166
Sr       2.36447194       1.57636594      15.43163320       0.07506644      -0.07528884      -0.04789117
Ti       1.97047269       1.97057450      11.65530483      -0.06531399       0.06517695      -0.05193551
Ti       0.39382079       3.54679074      16.86433333       0.00403895      -0.00318200       0.07291983
O        0.00000902       1.97050521      11.80033491      -0.07414444      -0.04648606      -0.01566496
O        2.36475793       3.54685853      17.01105715      -0.00200983       0.00489975      -0.00688824
O        1.97049401       3.94093312      11.79999618       0.04629580       0.07402540      -0.01408219
O        0.39419145       1.57638437      17.00516503      -0.00476271       0.00135677       0.01875080
O        1.97043419       1.97038596       9.84233916      -0.00815554       0.00868056      -0.04837222
O        0.39416160       3.54680681      15.05258735       0.02941676      -0.02939157       0.07221200
10
Lattice="3.940949890606662 0.0 0.0 0.0 3.940949890606662 0.0 0.0 0.0 26.940967945119528" Properties=species:S:1:pos:R:3:forces:R:3 tau=tau64 tau_p=6 tau_q=4 stage=B constraint=xy_fixed_z_free force_label=raw_dft energy=-15499.228715585132 free_energy=-15499.228715585132 stress="0.010579012042328082 -1.1936048997592873e-05 -0.0008961218324346649 -1.1936048997592873e-05 0.010313664491535441 0.0008952036748194654 -0.0008961218324346649 0.0008952036748194654 -0.0010843441435505524" pbc="T T T"
Sr       0.00003612       0.00009431      10.20560025      -0.00045740       0.00023089       0.03008011
Sr       2.36447194       1.57636594      15.43888676       0.07361994      -0.07374181      -0.06511422
Ti       1.97047269       1.97057450      11.65035802      -0.06436551       0.06420225      -0.05934389
Ti       0.39382079       3.54679074      16.86874578       0.00409500      -0.00320102       0.08938106
O        0.00000902       1.97050521      11.79436913      -0.07286661      -0.04562165      -0.01100098
O        2.36475793       3.54685853      17.02099133      -0.00198386       0.00472646      -0.03348425
O        1.97049401       3.94093312      11.79373895       0.04542342       0.07264883      -0.00806298
O        0.39419145       1.57638437      17.00876047      -0.00466809       0.00130175       0.01988234
O        1.97043419       1.97038596       9.83726511      -0.00802313       0.00854738      -0.05597343
O        0.39416160       3.54680681      15.05660416       0.02922599      -0.02909306       0.09363649
10
Lattice="3.940949890606662 0.0 0.0 0.0 3.940949890606662 0.0 0.0 0.0 26.940967945119528" Properties=species:S:1:pos:R:3:forces:R:3 tau=tau64 tau_p=6 tau_q=4 stage=B constraint=xy_fixed_z_free force_label=raw_dft energy=-15499.229623492953 free_energy=-15499.229623492953 stress="0.010664400700541633 -1.1017891382393419e-05 -0.0008832676258218725 -1.1017891382393419e-05 0.010260411349853874 0.0008814313105914736 -0.0008832676258218725 0.0008814313105914736 -0.000989773909185009" pbc="T T T"
Sr       0.00003612       0.00009431      10.19795560      -0.00047154       0.00024760       0.03414656
Sr       2.36447194       1.57636594      15.44637792       0.07197932      -0.07200863      -0.07412413
Ti       1.97047269       1.97057450      11.64385443      -0.06320260       0.06301003      -0.06237162
Ti       0.39382079       3.54679074      16.87506885       0.00420427      -0.00330258       0.09800762
O        0.00000902       1.97050521      11.78730650      -0.07138694      -0.04457522      -0.00787040
O        2.36475793       3.54685853      17.03191891      -0.00196329       0.00455162      -0.05626037
O        1.97049401       3.94093312      11.78638858       0.04437570       0.07107969      -0.00360366
O        0.39419145       1.57638437      17.01328363      -0.00456294       0.00125676       0.02509782
O        1.97043419       1.97038596       9.83062937      -0.00786475       0.00839157      -0.05867643
O        0.39416160       3.54680681      15.06253617       0.02889277      -0.02865083       0.10565460
10
Lattice="3.940949890606662 0.0 0.0 0.0 3.940949890606662 0.0 0.0 0.0 26.940967945119528" Properties=species:S:1:pos:R:3:forces:R:3 tau=tau64 tau_p=6 tau_q=4 stage=B constraint=xy_fixed_z_free force_label=raw_dft energy=-15499.231182161024 free_energy=-15499.231182161024 stress="0.010791106451439155 -1.0099733767193969e-05 -0.0008621500006722851 -1.0099733767193969e-05 0.01019797663202031 0.0008593955278266868 -0.0008621500006722851 0.0008593955278266868 -0.0008630681582874846" pbc="T T T"
Sr       0.00003612       0.00009431      10.18636843      -0.00048980       0.00027459       0.03429440
Sr       2.36447194       1.57636594      15.45720312       0.06946169      -0.06936656      -0.07690272
Ti       1.97047269       1.97057450      11.63284039      -0.06127787       0.06104879      -0.06083461
Ti       0.39382079       3.54679074      16.88626249       0.00442024      -0.00352395       0.09969632
O        0.00000902       1.97050521      11.77603950      -0.06909788      -0.04290760      -0.00522577
O        2.36475793       3.54685853      17.04831030      -0.00196098       0.00431508      -0.08278669
O        1.97049401       3.94093312      11.77473738       0.04271065       0.06867519       0.00081247
O        0.39419145       1.57638437      17.02093381      -0.00441150       0.00121845       0.03664593
O        1.97043419       1.97038596       9.81944552      -0.00760275       0.00813780      -0.05745696
O        0.39416160       3.54680681      15.07317904       0.02824820      -0.02787230       0.11175737
10
Lattice="3.940949890606662 0.0 0.0 0.0 3.940949890606662 0.0 0.0 0.0 26.940967945119528" Properties=species:S:1:pos:R:3:forces:R:3 tau=tau64 tau_p=6 tau_q=4 stage=B constraint=xy_fixed_z_free force_label=raw_dft energy=-15499.23361363423 free_energy=-15499.23361363423 stress="0.010981165077785442 -7.345260921595614e-06 -0.0008290963265251049 -7.345260921595614e-06 0.010134623756571547 0.0008254236960643071 -0.0008290963265251049 0.0008254236960643071 -0.0006904545266299876" pbc="T T T"
Sr       0.00003612       0.00009431      10.16860034      -0.00047180       0.00024991       0.02634558
Sr       2.36447194       1.57636594      15.47312230       0.06571328      -0.06548317      -0.06622236
Ti       1.97047269       1.97057450      11.61454701      -0.05834193       0.05805988      -0.05451690
Ti       0.39382079       3.54679074      16.90539942       0.00437370      -0.00341005       0.09171022
O        0.00000902       1.97050521      11.75805709      -0.06551865      -0.04043368      -0.00383429
O        2.36475793       3.54685853      17.07289737      -0.00186302       0.00392196      -0.11186227
O        1.97049401       3.94093312      11.75625979       0.04022799       0.06495969       0.00447475
O        0.39419145       1.57638437      17.03394174      -0.00411994       0.00108295       0.05730063
O        1.97043419       1.97038596       9.80091824      -0.00714612       0.00766883      -0.04894301
O        0.39416160       3.54680681      15.09157665       0.02714648      -0.02661683       0.10554764
10
Lattice="3.940949890606662 0.0 0.0 0.0 3.940949890606662 0.0 0.0 0.0 26.940967945119528" Properties=species:S:1:pos:R:3:forces:R:3 tau=tau64 tau_p=6 tau_q=4 stage=B constraint=xy_fixed_z_free force_label=raw_dft energy=-15499.236909204928 free_energy=-15499.236909204928 stress="0.011245594470962884 -4.590788075997259e-06 -0.0007776795000739356 -4.590788075997259e-06 0.010074025353968384 0.0007721705543827389 -0.0007776795000739356 0.0007721705543827389 -0.0004746874870581165" pbc="T T T"
Sr       0.00003612       0.00009431      10.14072364      -0.00045971       0.00025531       0.00724691
Sr       2.36447194       1.57636594      15.49740182       0.06023272      -0.05983985      -0.03538841
Ti       1.97047269       1.97057450      11.58450748      -0.05341261       0.05304880      -0.03671098
Ti       0.39382079       3.54679074      16.93740338       0.00362500      -0.00280379       0.06727626
O        0.00000902       1.97050521      11.72929625      -0.06014839      -0.03669710      -0.00610714
O        2.36475793       3.54685853      17.10977799      -0.00166222       0.00349850      -0.13967646
O        1.97049401       3.94093312      11.72689239       0.03649758       0.05948993       0.00499025
O        0.39419145       1.57638437      17.05611759      -0.00370290       0.00085283       0.09104893
O        1.97043419       1.97038596       9.77062920      -0.00637942       0.00689801      -0.03165851
O        0.39416160       3.54680681      15.12257024       0.02540996      -0.02470239       0.07897940
10
Lattice="3.940949890606662 0.0 0.0 0.0 3.940949890606662 0.0 0.0 0.0 26.940967945119528" Properties=species:S:1:pos:R:3:forces:R:3 tau=tau64 tau_p=6 tau_q=4 stage=B constraint=xy_fixed_z_free force_label=raw_dft energy=-15499.239709256328 free_energy=-15499.239709256328 stress="0.011592658049508276 -9.181576151994517e-07 -0.0006968816299363839 -9.181576151994517e-07 0.010049235098357999 0.0006913726842451871 -0.0006968816299363839 0.0006913726842451871 -0.00020383099057427826" pbc="T T T"
Sr       0.00003612       0.00009431      10.09615665      -0.00033887       0.00011930      -0.02543181
Sr       2.36447194       1.57636594      15.53560025       0.05236129      -0.05189772       0.02528346
Ti       1.97047269       1.97057450      11.53561073      -0.04653131       0.04633256       0.00588937
Ti       0.39382079       3.54679074      16.99026394       0.00361266      -0.00274002       0.00085592
O        0.00000902       1.97050521      11.68302005      -0.05239805      -0.03133583      -0.01382791
O        2.36475793       3.54685853      17.16467383      -0.00153186       0.00283516      -0.15412067
O        1.97049401       3.94093312      11.67998763       0.03113709       0.05162158       0.00005965
O        0.39419145       1.57638437      17.09460333      -0.00318251       0.00062683       0.14155543
O        1.97043419       1.97038596       9.72138817      -0.00545331       0.00597036      -0.00066720
O        0.39416160       3.54680681      15.17401538       0.02232515      -0.02153247       0.02040376
10
Lattice="3.940949890606662 0.0 0.0 0.0 3.940949890606662 0.0 0.0 0.0 26.940967945119528" Properties=species:S:1:pos:R:3:forces:R:3 tau=tau64 tau_p=6 tau_q=4 stage=B constraint=xy_fixed_z_free force_label=raw_dft energy=-15499.24079254152 free_energy=-15499.24079254152 stress="0.011543995695902707 -0.0 -0.0006858637385539904 -0.0 0.010118096919497957 0.0006812729504779932 -0.0006858637385539904 0.0006812729504779932 -0.00020933993626547502" pbc="T T T"
Sr       0.00003612       0.00009431      10.09057513      -0.00033373       0.00011210      -0.03278311
Sr       2.36447194       1.57636594      15.53995276       0.05139327      -0.05100683       0.04248979
Ti       1.97047269       1.97057450      11.52898788      -0.04583763       0.04565971       0.01067856
Ti       0.39382079       3.54679074      16.99790382       0.00384663      -0.00300099      -0.01312651
O        0.00000902       1.97050521      11.67684820      -0.05139378      -0.03068175      -0.01519651
O        2.36475793       3.54685853      17.16756374      -0.00153726       0.00280816      -0.13300882
O        1.97049401       3.94093312      11.67409260       0.03048788       0.05068313      -0.00257625
O        0.39419145       1.57638437      17.10288153      -0.00308172       0.00064483       0.13884857
O        1.97043419       1.97038596       9.71459660      -0.00536615       0.00588448       0.00893561
O        0.39416160       3.54680681      15.18191770       0.02182224      -0.02110233      -0.00426109
10
Lattice="3.940949890606662 0.0 0.0 0.0 3.940949890606662 0.0 0.0 0.0 26.940967945119528" Properties=species:S:1:pos:R:3:forces:R:3 tau=tau64 tau_p=6 tau_q=4 stage=B constraint=xy_fixed_z_free force_label=raw_dft energy=-15499.242092565382 free_energy=-15499.242092565382 stress="0.011451261776767563 0.0 -0.0006766821624019959 0.0 0.010217257941939499 0.0006730095319411981 -0.0006766821624019959 0.0006730095319411981 -0.00022127598526306785" pbc="T T T"
Sr       0.00003612       0.00009431      10.08550318      -0.00032550       0.00011236      -0.03640399
Sr       2.36447194       1.57636594      15.54407790       0.05052141      -0.05023704       0.05467425
Ti       1.97047269       1.97057450      11.52339935      -0.04530849       0.04510975       0.01389373
Ti       0.39382079       3.54679074      17.00436430       0.00412971      -0.00331235      -0.02482066
O        0.00000902       1.97050521      11.67141756      -0.05049749      -0.03011636      -0.01587271
O        2.36475793       3.54685853      17.16793318      -0.00153932       0.00280816      -0.10569497
O        1.97049401       3.94093312      11.66909043       0.02992533       0.04989149      -0.00520391
O        0.39419145       1.57638437      17.11198755      -0.00298325       0.00070140       0.12875853
O        1.97043419       1.97038596       9.70890211      -0.00529210       0.00581224       0.01410122
O        0.39416160       3.54680681      15.18864439       0.02136947      -0.02076937      -0.02343175
10
Lattice="3.940949890606662 0.0 0.0 0.0 3.940949890606662 0.0 0.0 0.0 26.940967945119528" Properties=species:S:1:pos:R:3:forces:R:3 tau=tau64 tau_p=6 tau_q=4 stage=B constraint=xy_fixed_z_free force_label=raw_dft energy=-15499.243598171253 free_energy=-15499.243598171253 stress="0.011331901286791634 9.181576151994517e-07 -0.0006629097981740042 9.181576151994517e-07 0.010342127377606624 0.0006601553253284058 -0.0006629097981740042 0.0006601553253284058 -0.0002166851971870706" pbc="T T T"
Sr       0.00003612       0.00009431      10.07675654      -0.00030005       0.00008947      -0.03755379
Sr       2.36447194       1.57636594      15.55177703       0.04911218      -0.04895149       0.06349596
Ti       1.97047269       1.97057450      11.51466148      -0.04436593       0.04410265       0.01583877
Ti       0.39382079       3.54679074      17.01402982       0.00424721      -0.00347407      -0.03460216
O        0.00000902       1.97050521      11.66255724      -0.04902837      -0.02924424      -0.01560634
O        2.36475793       3.54685853      17.17059351      -0.00151464       0.00276034      -0.07468103
O        1.97049401       3.94093312      11.66076745       0.02906349       0.04857122      -0.00739218
O        0.39419145       1.57638437      17.12564659      -0.00281536       0.00076002       0.11319359
O        1.97043419       1.97038596       9.70002260      -0.00515686       0.00568831       0.01732589
O        0.39416160       3.54680681      15.19850771       0.02075806      -0.02030246      -0.04001871
10
Lattice="3.940949890606662 0.0 0.0 0.0 3.940949890606662 0.0 0.0 0.0 26.940967945119528" Properties=species:S:1:pos:R:3:forces:R:3 tau=tau64 tau_p=6 tau_q=4 stage=B constraint=xy_fixed_z_free force_label=raw_dft energy=-15499.245279562661 free_energy=-15499.245279562661 stress="0.011194177644511714 9.181576151994517e-07 -0.0006399558577940179 9.181576151994517e-07 0.01050188680265133 0.000638119542563619 -0.0006399558577940179 0.000638119542563619 -0.000180877050194292" pbc="T T T"
Sr       0.00003612       0.00009431      10.06209532      -0.00028591       0.00006428      -0.03607001
Sr       2.36447194       1.57636594      15.56517887       0.04683007      -0.04683342       0.06882509
Ti       1.97047269       1.97057450      11.50068190      -0.04243426       0.04223165       0.01605371
Ti       0.39382079       3.54679074      17.02903824       0.00405720      -0.00329461      -0.04259007
O        0.00000902       1.97050521      11.64810661      -0.04676348      -0.02789493      -0.01428505
O        2.36475793       3.54685853      17.17770101      -0.00145679       0.00268269      -0.04028584
O        1.97049401       3.94093312      11.64696894       0.02771418       0.04645598      -0.00903743
O        0.39419145       1.57638437      17.14613514      -0.00262561       0.00076259       0.09138678
O        1.97043419       1.97038596       9.68582930      -0.00494346       0.00546334       0.01876648
O        0.39416160       3.54680681      15.21358462       0.01990805      -0.01963757      -0.05276366
10
Lattice="3.940949890606662 0.0 0.0 0.0 3.940949890606662 0.0 0.0 0.0 26.940967945119528" Properties=species:S:1:pos:R:3:forces:R:3 tau=tau64 tau_p=6 tau_q=4 stage=B constraint=xy_fixed_z_free force_label=raw_dft energy=-15499.246947484437 free_energy=-15499.246947484437 stress="0.01103717269231261 9.181576151994517e-07 -0.0006032295531860398 9.181576151994517e-07 0.010691945428997615 0.0006032295531860398 -0.0006032295531860398 0.0006032295531860398 -0.0001083425985935353" pbc="T T T"
Sr       0.00003612       0.00009431      10.03796230      -0.00029079       0.00006531      -0.03006854
Sr       2.36447194       1.57636594      15.58769776       0.04333029      -0.04350769       0.06902178
Ti       1.97047269       1.97057450      11.47817640      -0.03910956       0.03894810       0.01744185
Ti       0.39382079       3.54679074      17.05270687       0.00315372      -0.00246980      -0.05046381
O        0.00000902       1.97050521      11.62468314      -0.04332257      -0.02582262      -0.01169621
O        2.36475793       3.54685853      17.19278517      -0.00130586       0.00251300      -0.00387311
O        1.97049401       3.94093312      11.62430699       0.02566295       0.04319865      -0.00990749
O        0.39419145       1.57638437      17.17686797      -0.00235076       0.00069703       0.06243641
O        1.97043419       1.97038596       9.66299214      -0.00455214       0.00507741       0.01832528
O        0.39416160       3.54680681      15.23714122       0.01878448      -0.01869938      -0.06121617
10
Lattice="3.940949890606662 0.0 0.0 0.0 3.940949890606662 0.0 0.0 0.0 26.940967945119528" Properties=species:S:1:pos:R:3:forces:R:3 tau=tau64 tau_p=6 tau_q=4 stage=B constraint=xy_fixed_z_free force_label=raw_dft energy=-15499.248025055236 free_energy=-15499.248025055236 stress="0.010805796973282348 1.8363152303989035e-06 -0.0005573216724260672 1.8363152303989035e-06 0.010922402990412677 0.0005591579876564661 -0.0005573216724260672 0.0005591579876564661 5.5089456911967096e-06" pbc="T T T"
Sr       0.00003612       0.00009431      10.00575297      -0.00031316       0.00009025      -0.01276938
Sr       2.36447194       1.57636594      15.61898316       0.03907743      -0.03944818       0.04727976
Ti       1.97047269       1.97057450      11.44983571      -0.03562855       0.03551233       0.01192503
Ti       0.39382079       3.54679074      17.08157109       0.00258139      -0.00189645      -0.04031953
O        0.00000902       1.97050521      11.59420760      -0.03931371      -0.02339318      -0.00485321
O        2.36475793       3.54685853      17.21264817      -0.00113977       0.00224200       0.03389974
O        1.97049401       3.94093312      11.59480315       0.02323943       0.03935819      -0.00742483
O        0.39419145       1.57638437      17.21754361      -0.00195892       0.00060370       0.01345201
O        1.97043419       1.97038596       9.63410619      -0.00405077       0.00457219       0.01047390
O        0.39416160       3.54680681      15.26586831       0.01750664      -0.01764060      -0.05166323
10
Lattice="3.940949890606662 0.0 0.0 0.0 3.940949890606662 0.0 0.0 0.0 26.940967945119528" Properties=species:S:1:pos:R:3:forces:R:3 tau=tau64 tau_p=6 tau_q=4 stage=B constraint=xy_fixed_z_free force_label=raw_dft energy=-15499.248239889113 free_energy=-15499.248239889113 stress="0.010780088560056763 1.8363152303989035e-06 -0.0005545671995804689 1.8363152303989035e-06 0.01091964851756708 0.0005564035148108677 -0.0005545671995804689 0.0005564035148108677 4.1317092683975326e-05" pbc="T T T"
Sr       0.00003612       0.00009431      10.00320625      -0.00031985       0.00009976      -0.00543711
Sr       2.36447194       1.57636594      15.62244578       0.03875398      -0.03913399       0.02997161
Ti       1.97047269       1.97057450      11.44879568      -0.03545500       0.03532696       0.00360931
Ti       0.39382079       3.54679074      17.08184641       0.00257265      -0.00187665      -0.02425733
O        0.00000902       1.97050521      11.59234387      -0.03905994      -0.02326128      -0.00162802
O        2.36475793       3.54685853      17.21439215      -0.00113231       0.00221346       0.02710611
O        1.97049401       3.94093312      11.59295012       0.02310599       0.03910982      -0.00424566
O        0.39419145       1.57638437      17.22035896      -0.00192730       0.00060652       0.00209339
O        1.97043419       1.97038596       9.63294628      -0.00402969       0.00455188       0.00537978
O        0.39416160       3.54680681      15.26603448       0.01749121      -0.01763674      -0.03259208
10
Lattice="3.940949890606662 0.0 0.0 0.0 3.940949890606662 0.0 0.0 0.0 26.940967945119528" Properties=species:S:1:pos:R:3:forces:R:3 tau=tau64 tau_p=6 tau_q=4 stage=B constraint=xy_fixed_z_free force_label=raw_dft energy=-15499.24837689843 free_energy=-15499.24837689843 stress="0.010789270136208758 9.181576151994517e-07 -0.0005518127267348705 9.181576151994517e-07 0.010882922212959101 0.0005527308843500699 -0.0005518127267348705 0.0005527308843500699 8.447050059834955e-05" pbc="T T T"
Sr       0.00003612       0.00009431      10.00030577      -0.00032036       0.00009924       0.00086106
Sr       2.36447194       1.57636594      15.62625286       0.03838143      -0.03874293       0.01361425
Ti       1.97047269       1.97057450      11.44709723      -0.03524185       0.03512384      -0.00138917
Ti       0.39382079       3.54679074      17.08272781       0.00256879      -0.00186482      -0.01037054
O        0.00000902       1.97050521      11.59009015      -0.03876221      -0.02309751       0.00042038
O        2.36475793       3.54685853      17.21820102      -0.00112691       0.00216513       0.01381942
O        1.97049401       3.94093312      11.59055415       0.02293655       0.03879229      -0.00157274
O        0.39419145       1.57638437      17.22218789      -0.00189670       0.00059495      -0.00296885
O        1.97043419       1.97038596       9.63119560      -0.00399961       0.00452206       0.00033270
O        0.39416160       3.54680681      15.26670748       0.01746139      -0.01759226      -0.01274624
