10
Lattice="3.940949890606662 0.0 0.0 0.0 3.940949890606662 0.0 0.0 0.0 26.940967945119528" Properties=species:S:1:pos:R:3:forces:R:3 tau=tau94 tau_p=9 tau_q=4 stage=A constraint=rigid_scf force_label=raw_dft energy=-15497.559272694736 free_energy=-15497.559272694736 stress="0.005629224338787838 -0.0009548839198074298 -0.0005720121942692583 -0.0009548839198074298 0.019554920888517922 0.011994811084965638 -0.0005720121942692583 0.011994811084965638 -0.029109269032283416" pbc="T T T"
Sr       0.00003626       0.00009419      10.75260867       0.00708905       0.00666070       0.34216807
Sr       3.54675677       1.57636577      14.64522241       0.58166787      -0.68067282       4.49196456
Ti       1.97047258       1.97057465      12.38212169      -0.89388669       0.39858964      -2.60054178
Ti       1.57610567       3.54679066      16.28444791      -0.02734265      -0.13084395       0.14164336
O        0.00000906       1.97050529      12.45001441       0.04353289       0.10509641      -1.30064036
O        3.54704288       3.54685845      16.39256827      -0.00145704      -0.03518426      -0.08569873
O        1.97049386       3.94093294      12.44909065       0.81741977       1.40711874      -3.14312605
O        1.57647651       1.57638429      16.37955485      -0.08767745       0.01562537      -0.24661507
O        1.97043435       1.97038588      10.49176941      -0.06277194       0.18613398       0.31308812
O        1.57644656       3.54680682      14.44792112      -0.37657405      -1.27252329       2.08775788
