10
Lattice="3.940949890606662 0.0 0.0 0.0 3.940949890606662 0.0 0.0 0.0 26.940967945119528" Properties=species:S:1:pos:R:3:forces:R:3 tau=tau43 tau_p=4 tau_q=3 stage=A constraint=rigid_scf force_label=raw_dft energy=-15497.078347812107 free_energy=-15497.078347812107 stress="0.018281436276236282 0.0010779170402441562 0.006838437918005516 0.0010779170402441562 0.011241921840502087 0.00614614707614513 0.006838437918005516 0.00614614707614513 -0.021765844425918203" pbc="T T T"
Sr       0.00003626       0.00009419      10.75260867       0.00534044      -0.00744309       0.60218347
Sr       1.57628183       1.18227078      14.64522241      -0.90662600      -1.51220204       5.07479714
Ti       1.97047258       1.97057465      12.38212169       0.78457444       1.54454163      -5.05334540
Ti       3.54658061       3.15269568      16.28444791      -0.03988784       0.01253567      -0.58188487
O        0.00000906       1.97050529      12.45001441       0.69148714      -0.92456793      -1.03872156
O        1.57656794       3.15276346      16.39256827       0.00947194       0.12431438      -0.17440615
O        1.97049386       3.94093294      12.44909065      -0.35481044       0.43653784      -0.57420833
O        3.54695145       1.18228930      16.37955485       0.04164673       0.01756192      -0.07406808
O        1.97043435       1.97038588      10.49176941       0.10019203       0.09708048       0.42999695
O        3.54692150       3.15271183      14.44792112      -0.33138846       0.21164087       1.38965658
