10
Lattice="3.940949890606662 0.0 0.0 0.0 3.940949890606662 0.0 0.0 0.0 26.940967945119528" Properties=species:S:1:pos:R:3:forces:R:3 tau=tau12 tau_p=1 tau_q=2 stage=A constraint=rigid_scf force_label=raw_dft energy=-15499.601823930778 free_energy=-15499.601823930778 stress="0.008885011242285093 0.000892449201973867 0.0055722985666454726 0.000892449201973867 0.010977492447324644 0.013118636005969764 0.0055722985666454726 0.013118636005969764 -0.006703468748571196" pbc="T T T"
Sr       0.00003626       0.00009419      10.75260867      -0.00209031       0.00043914       0.19403087
Sr       0.39399686       0.78817579      14.64522241      -0.45214006      -0.70795094       1.64030211
Ti       1.97047258       1.97057465      12.38212169       0.55357548       0.59813270      -0.63515427
Ti       2.36429564       2.75860069      16.28444791      -0.03955308      -0.12194228      -0.01539088
O        0.00000906       1.97050529      12.45001441       0.67258670      -0.27665019      -0.41071985
O        0.39428297       2.75866847      16.39256827      -0.00664296      -0.03946001      -0.04910061
O        1.97049386       3.94093294      12.44909065      -0.40853312       1.64451949      -1.02318490
O        2.36466649       0.78819431      16.37955485       0.00672112      -0.00446009      -0.04521619
O        1.97043435       1.97038588      10.49176941       0.12805302       0.27094928       0.17247577
O        2.36463654       2.75861684      14.44792112      -0.45197680      -1.36357736       0.17195744
