10
Lattice="3.940949890606662 0.0 0.0 0.0 3.940949890606662 0.0 0.0 0.0 26.940967945119528" Properties=species:S:1:pos:R:3:forces:R:3 tau=tau05 tau_p=0 tau_q=5 stage=B constraint=xy_fixed_z_free force_label=raw_dft energy=-15497.072079533777 free_energy=-15497.072079533777 stress="0.004292386851057437 -0.0 -1.8363152303989035e-06 -0.0 0.02242599975124661 1.8363152303989035e-06 -1.8363152303989035e-06 1.8363152303989035e-06 -0.03966624529184671" pbc="T T T"
Sr       0.00003626       0.00009419      10.75260867      -0.00007996      -0.00007970       0.29088433
Sr       3.94085176       1.97046076      14.64522241       0.00010773      -0.00020646       5.36988419
Ti       1.97047258       1.97057465      12.38212169      -0.00010027       0.00106161      -2.77788619
Ti       1.97020066       3.94088565      16.28444791      -0.00017329       0.00004499       0.42497893
O        0.00000906       1.97050529      12.45001441      -0.00003111      -0.00016121      -1.83958420
O        0.00018798       0.00000355      16.39256827      -0.00001234      -0.00000489      -0.11535074
O        1.97049386       3.94093294      12.44909065      -0.00005168      -0.00070500      -4.26525111
O        1.97057150       1.97047928      16.37955485       0.00037590      -0.00006376      -0.30432605
O        1.97043435       1.97038588      10.49176941       0.00008665       0.00014964       0.31001616
O        1.97054155       3.94090181      14.44792112      -0.00012187      -0.00003522       2.90663469
10
Lattice="3.940949890606662 0.0 0.0 0.0 3.940949890606662 0.0 0.0 0.0 26.940967945119528" Properties=species:S:1:pos:R:3:forces:R:3 tau=tau05 tau_p=0 tau_q=5 stage=B constraint=xy_fixed_z_free force_label=raw_dft energy=-15498.115700187831 free_energy=-15498.115700187831 stress="0.0022981485108442275 0.0 -9.181576151994517e-07 0.0 0.015928198308480086 1.8363152303989035e-06 -9.181576151994517e-07 1.8363152303989035e-06 -0.03360548687391513" pbc="T T T"
Sr       0.00003612       0.00009431      10.75859561      -0.00009127      -0.00009770       0.24799370
Sr       3.94085191       1.97046093      14.75574414       0.00013781      -0.00016147       3.01458683
Ti       1.97047269       1.97057450      12.32494829      -0.00005862       0.00072299      -1.54848262
Ti       1.97020076       3.94088573      16.29319471       0.00029619       0.00011184       0.86149465
O        0.00000902       1.97050521      12.41215266      -0.00009513      -0.00016609      -0.52895357
O        0.00018798       0.00000361      16.39019421      -0.00050265      -0.00000977       0.19052749
O        1.97049401       3.94093312      12.36130444      -0.00001903      -0.00048517      -2.65088218
O        1.97057142       1.97047936      16.37329125       0.00023140      -0.00013215       0.05604825
O        1.97043419       1.97038596      10.49815005       0.00009950       0.00021829      -0.53801619
O        1.97054157       3.94090180      14.50774459       0.00000154      -0.00000077       0.89568364
10
Lattice="3.940949890606662 0.0 0.0 0.0 3.940949890606662 0.0 0.0 0.0 26.940967945119528" Properties=species:S:1:pos:R:3:forces:R:3 tau=tau05 tau_p=0 tau_q=5 stage=B constraint=xy_fixed_z_free force_label=raw_dft energy=-15498.69129020956 free_energy=-15498.69129020956 stress="-0.0006619916405588047 0.0 -0.0 0.0 0.008743614969544377 1.8363152303989035e-06 -0.0 1.8363152303989035e-06 -0.028452786337415808" pbc="T T T"
Sr       0.00003612       0.00009431      10.76827774      -0.00012547      -0.00011570      -0.07213590
Sr       3.94085191       1.97046093      14.87731773       0.00021674      -0.00013344       0.99806137
Ti       1.97047269       1.97057450      12.26245900      -0.00001131       0.00049391      -0.49042662
Ti       1.97020076       3.94088573      16.32559070       0.00074639       0.00015761       0.31164984
O        0.00000902       1.97050521      12.38892292      -0.00010464      -0.00014861       0.13612680
O        0.00018798       0.00000361      16.39691614      -0.00079421      -0.00003780       0.66195262
O        1.97049401       3.94093312      12.25536453       0.00001131      -0.00033733      -1.29854079
O        1.97057142       1.97047936      16.37469680      -0.00001337      -0.00016866       0.60226189
O        1.97043419       1.97038596      10.47913527       0.00009462       0.00026405      -1.15668635
O        1.97054157       3.94090180      14.54663913      -0.00002031       0.00002623       0.30773688
10
Lattice="3.940949890606662 0.0 0.0 0.0 3.940949890606662 0.0 0.0 0.0 26.940967945119528" Properties=species:S:1:pos:R:3:forces:R:3 tau=tau05 tau_p=0 tau_q=5 stage=B constraint=xy_fixed_z_free force_label=raw_dft energy=-15498.910831382474 free_energy=-15498.910831382474 stress="-0.0028104804601255216 -0.0 -0.0 -0.0 0.004027957457879995 1.8363152303989035e-06 -0.0 1.8363152303989035e-06 -0.023947386919632097" pbc="T T T"
Sr       0.00003612       0.00009431      10.76985930      -0.00014810      -0.00011724      -0.53429221
Sr       3.94085191       1.97046093      14.96622288       0.00028334      -0.00012650      -0.12181193
Ti       1.97047269       1.97057450      12.21750260       0.00001311       0.00033321      -0.47596802
Ti       1.97020076       3.94088573      16.34880257       0.00101790       0.00021314       0.20839280
O        0.00000902       1.97050521      12.38152763      -0.00009230      -0.00013395       0.35097152
O        0.00018798       0.00000361      16.42187998      -0.00094128      -0.00004577       0.87097842
O        1.97049401       3.94093312      12.16397370       0.00003420      -0.00030622      -0.31608679
O        1.97057142       1.97047936      16.39531397      -0.00021263      -0.00017921       0.87129672
O        1.97043419       1.97038596      10.43312868       0.00007225       0.00031985      -0.82969936
O        1.97054157       3.94090180      14.57710864      -0.00002648       0.00004294      -0.02378142
10
Lattice="3.940949890606662 0.0 0.0 0.0 3.940949890606662 0.0 0.0 0.0 26.940967945119528" Properties=species:S:1:pos:R:3:forces:R:3 tau=tau05 tau_p=0 tau_q=5 stage=B constraint=xy_fixed_z_free force_label=raw_dft energy=-15499.024777827897 free_energy=-15499.024777827897 stress="-0.0027856902045151366 -0.0 -0.0 -0.0 0.002268767467157845 1.8363152303989035e-06 -0.0 1.8363152303989035e-06 -0.020551121901009328" pbc="T T T"
Sr       0.00003612       0.00009431      10.75481361      -0.00016352      -0.00010876      -0.76158852
Sr       3.94085191       1.97046093      15.01746420       0.00027305      -0.00012958      -0.55319290
Ti       1.97047269       1.97057450      12.17407372       0.00002597       0.00028256      -0.29247481
Ti       1.97020076       3.94088573      16.36860802       0.00108063       0.00021777       0.26374248
O        0.00000902       1.97050521      12.38469707      -0.00006916      -0.00013421       0.22711634
O        0.00018798       0.00000361      16.45983475      -0.00092405      -0.00005425       0.81727682
O        1.97049401       3.94093312      12.10114457       0.00004937      -0.00029388       0.14173258
O        1.97057142       1.97047936      16.43076126      -0.00026200      -0.00018023       0.85414721
O        1.97043419       1.97038596      10.38749415       0.00006479       0.00035301      -0.60957642
O        1.97054157       3.94090180      14.59642861      -0.00007508       0.00004782      -0.08718251
10
Lattice="3.940949890606662 0.0 0.0 0.0 3.940949890606662 0.0 0.0 0.0 26.940967945119528" Properties=species:S:1:pos:R:3:forces:R:3 tau=tau05 tau_p=0 tau_q=5 stage=B constraint=xy_fixed_z_free force_label=raw_dft energy=-15499.150622995145 free_energy=-15499.150622995145 stress="-0.00044163381291093624 0.0 -9.181576151994517e-07 0.0 0.002479943718653719 1.8363152303989035e-06 -9.181576151994517e-07 1.8363152303989035e-06 -0.015084411460111791" pbc="T T T"
Sr       0.00003612       0.00009431      10.71474825      -0.00017663      -0.00008922      -0.87465459
Sr       3.94085191       1.97046093      15.06309032       0.00019926      -0.00013190      -0.70060581
Ti       1.97047269       1.97057450      12.11584812       0.00002314       0.00021983      -0.07477257
Ti       1.97020076       3.94088573      16.40024314       0.00100042       0.00020826       0.36887437
O        0.00000902       1.97050521      12.39125999      -0.00003805      -0.00014115      -0.09470067
O        0.00018798       0.00000361      16.52541766      -0.00076850      -0.00005194       0.55566733
O        1.97049401       3.94093312      12.03203253       0.00006402      -0.00029516       0.43717521
O        1.97057142       1.97047936      16.49461545      -0.00021134      -0.00014450       0.61961041
O        1.97043419       1.97038596      10.31940812       0.00005014       0.00038078      -0.26618785
O        1.97054157       3.94090180      14.61865638      -0.00014244       0.00004525       0.02959417
10
Lattice="3.940949890606662 0.0 0.0 0.0 3.940949890606662 0.0 0.0 0.0 26.940967945119528" Properties=species:S:1:pos:R:3:forces:R:3 tau=tau05 tau_p=0 tau_q=5 stage=B constraint=xy_fixed_z_free force_label=raw_dft energy=-15499.25181641735 free_energy=-15499.25181641735 stress="0.004205161877613489 0.0 -1.8363152303989035e-06 0.0 0.004980086904841826 1.8363152303989035e-06 -1.8363152303989035e-06 1.8363152303989035e-06 -0.008593037120651669" pbc="T T T"
Sr       0.00003612       0.00009431      10.64992155      -0.00017304      -0.00007585      -0.76615866
Sr       3.94085191       1.97046093      15.08844458       0.00008073      -0.00013781      -0.52050415
Ti       1.97047269       1.97057450      12.05783738       0.00001028       0.00021392       0.13178986
Ti       1.97020076       3.94088573      16.44259863       0.00078933       0.00017098       0.44744240
O        0.00000902       1.97050521      12.39269108      -0.00001697      -0.00015504      -0.47743457
O        0.00018798       0.00000361      16.60439052      -0.00049571      -0.00004345       0.17025845
O        1.97049401       3.94093312      11.97672349       0.00005836      -0.00030673       0.45533080
O        1.97057142       1.97047936      16.57380052      -0.00006633      -0.00009976       0.23897838
O        1.97043419       1.97038596      10.24572937       0.00004037       0.00039364       0.06233717
O        1.97054157       3.94090180      14.64318285      -0.00022729       0.00004011       0.25796032
10
Lattice="3.940949890606662 0.0 0.0 0.0 3.940949890606662 0.0 0.0 0.0 26.940967945119528" Properties=species:S:1:pos:R:3:forces:R:3 tau=tau05 tau_p=0 tau_q=5 stage=B constraint=xy_fixed_z_free force_label=raw_dft energy=-15499.309818570517 free_energy=-15499.309818570517 stress="0.008335952988395822 -0.0 -1.8363152303989035e-06 -0.0 0.008018270453536811 1.8363152303989035e-06 -1.8363152303989035e-06 1.8363152303989035e-06 -0.004225361345147877" pbc="T T T"
Sr       0.00003612       0.00009431      10.59049761      -0.00014938      -0.00006685      -0.50941370
Sr       3.94085191       1.97046093      15.08728389       0.00000283      -0.00012676      -0.22774652
Ti       1.97047269       1.97057450      12.02825501       0.00000694       0.00021957       0.16218570
Ti       1.97020076       3.94088573      16.47958005       0.00052553       0.00011519       0.40924943
O        0.00000902       1.97050521      12.38137525      -0.00000823      -0.00017226      -0.64331649
O        0.00018798       0.00000361      16.65650332      -0.00027074      -0.00003214      -0.07230173
O        1.97049401       3.94093312      11.95727145       0.00004885      -0.00031059       0.29411980
O        1.97057142       1.97047936      16.62794871       0.00006891      -0.00005939      -0.01850089
O        1.97043419       1.97038596      10.20239895       0.00004191       0.00040289       0.21122975
O        1.97054157       3.94090180      14.66420573      -0.00026662       0.00003034       0.39449464
10
Lattice="3.940949890606662 0.0 0.0 0.0 3.940949890606662 0.0 0.0 0.0 26.940967945119528" Properties=species:S:1:pos:R:3:forces:R:3 tau=tau05 tau_p=0 tau_q=5 stage=B constraint=xy_fixed_z_free force_label=raw_dft energy=-15499.354958990982 free_energy=-15499.354958990982 stress="0.011832297187075335 -0.0 -1.8363152303989035e-06 -0.0 0.011167551073670932 1.8363152303989035e-06 -1.8363152303989035e-06 1.8363152303989035e-06 -0.0011146433448521345" pbc="T T T"
Sr       0.00003612       0.00009431      10.52936813      -0.00013010      -0.00006171      -0.16172342
Sr       3.94085191       1.97046093      15.07556831      -0.00003780      -0.00013035       0.08965797
Ti       1.97047269       1.97057450      12.01196516      -0.00001028       0.00024066       0.07678960
Ti       1.97020076       3.94088573      16.51976244       0.00029542       0.00009487       0.25802846
O        0.00000902       1.97050521      12.35462378      -0.00000797      -0.00019026      -0.63800099
O        0.00018798       0.00000361      16.69497247      -0.00011236      -0.00002211      -0.19115484
O        1.97049401       3.94093312      11.95402728       0.00003060      -0.00031136       0.08812482
O        1.97057142       1.97047936      16.66972985       0.00018640      -0.00003162      -0.16046872
O        1.97043419       1.97038596      10.17475634       0.00005039       0.00038258       0.21734101
O        1.97054157       3.94090180      14.69054621      -0.00026457       0.00002931       0.42140587
10
Lattice="3.940949890606662 0.0 0.0 0.0 3.940949890606662 0.0 0.0 0.0 26.940967945119528" Properties=species:S:1:pos:R:3:forces:R:3 tau=tau05 tau_p=0 tau_q=5 stage=B constraint=xy_fixed_z_free force_label=raw_dft energy=-15499.381306549465 free_energy=-15499.381306549465 stress="0.01332889409985044 0.0 -1.8363152303989035e-06 0.0 0.012947858689542667 1.8363152303989035e-06 -1.8363152303989035e-06 1.8363152303989035e-06 5.876208737276491e-05" pbc="T T T"
Sr       0.00003612       0.00009431      10.48773508      -0.00012084      -0.00005579       0.09646316
Sr       3.94085191       1.97046093      15.06930233      -0.00005271      -0.00012367       0.27003654
Ti       1.97047269       1.97057450      12.00471526      -0.00002417       0.00025171      -0.04738697
Ti       1.97020076       3.94088573      16.55145273       0.00020029       0.00006633       0.08919337
O        0.00000902       1.97050521      12.32100556      -0.00001234      -0.00019566      -0.50910902
O        0.00018798       0.00000361      16.71329149      -0.00008665      -0.00001054      -0.17143473
O        1.97049401       3.94093312      11.95599491       0.00002494      -0.00031342      -0.01709578
O        1.97057142       1.97047936      16.69099722       0.00024991      -0.00002571      -0.15829357
O        1.97043419       1.97038596      10.16361969       0.00006505       0.00037332       0.11738629
O        1.97054157       3.94090180      14.71720570      -0.00024323       0.00003342       0.33024072
10
Lattice="3.940949890606662 0.0 0.0 0.0 3.940949890606662 0.0 0.0 0.0 26.940967945119528" Properties=species:S:1:pos:R:3:forces:R:3 tau=tau05 tau_p=0 tau_q=5 stage=B constraint=xy_fixed_z_free force_label=raw_dft energy=-15499.400415743785 free_energy=-15499.400415743785 stress="0.01344733643221117 -0.0 -1.8363152303989035e-06 -0.0 0.013486817209664746 1.8363152303989035e-06 -1.8363152303989035e-06 1.8363152303989035e-06 0.00012027864759112817" pbc="T T T"
Sr       0.00003612       0.00009431      10.46016800      -0.00011467      -0.00005374       0.24391824
Sr       3.94085191       1.97046093      15.07605176      -0.00005451      -0.00011904       0.31794827
Ti       1.97047269       1.97057450      11.99525041      -0.00001568       0.00024323      -0.14222160
Ti       1.97020076       3.94088573      16.57821452       0.00019232       0.00006556      -0.03745120
O        0.00000902       1.97050521      12.28271602      -0.00002314      -0.00020132      -0.34242235
O        0.00018798       0.00000361      16.72374175      -0.00013241      -0.00000848      -0.08723470
O        1.97049401       3.94093312      11.95325927       0.00001877      -0.00029979      -0.02492916
O        1.97057142       1.97047936      16.70377485       0.00027279      -0.00003754      -0.08407456
O        1.97043419       1.97038596      10.15605705       0.00006119       0.00036972      -0.01513428
O        1.97054157       3.94090180      14.74608631      -0.00020492       0.00004139       0.17160134
10
Lattice="3.940949890606662 0.0 0.0 0.0 3.940949890606662 0.0 0.0 0.0 26.940967945119528" Properties=species:S:1:pos:R:3:forces:R:3 tau=tau05 tau_p=0 tau_q=5 stage=B constraint=xy_fixed_z_free force_label=raw_dft energy=-15499.417201358037 free_energy=-15499.417201358037 stress="0.012664147986446038 -0.0 -1.8363152303989035e-06 -0.0 0.013036919978217014 1.8363152303989035e-06 -1.8363152303989035e-06 1.8363152303989035e-06 -0.00041959803014614944" pbc="T T T"
Sr       0.00003612       0.00009431      10.44139392      -0.00011544      -0.00005554       0.27928660
Sr       3.94085191       1.97046093      15.09880617      -0.00005039      -0.00011647       0.25307034
Ti       1.97047269       1.97057450      11.97699978      -0.00000643       0.00021520      -0.18083134
Ti       1.97020076       3.94088573      16.60382076       0.00024168       0.00006968      -0.10384274
O        0.00000902       1.97050521      12.23886151      -0.00003137      -0.00020157      -0.18101440
O        0.00018798       0.00000361      16.73470884      -0.00022857      -0.00000591       0.02060431
O        1.97049401       3.94093312      11.94209172       0.00001954      -0.00027099       0.03592962
O        1.97057142       1.97047936      16.71656096       0.00026894      -0.00005374       0.02125042
O        1.97043419       1.97038596      10.14353246       0.00007122       0.00036972      -0.13364209
O        1.97054157       3.94090180      14.77854384      -0.00016892       0.00004988      -0.01081072
10
Lattice="3.940949890606662 0.0 0.0 0.0 3.940949890606662 0.0 0.0 0.0 26.940967945119528" Properties=species:S:1:pos:R:3:forces:R:3 tau=tau05 tau_p=0 tau_q=5 stage=B constraint=xy_fixed_z_free force_label=raw_dft energy=-15499.430292754816 free_energy=-15499.430292754816 stress="0.011547668326363504 0.0 -1.8363152303989035e-06 0.0 0.012036128177649612 1.8363152303989035e-06 -1.8363152303989035e-06 1.8363152303989035e-06 -0.0009466205012706346" pbc="T T T"
Sr       0.00003612       0.00009431      10.42880077      -0.00011519      -0.00005734       0.20776905
Sr       3.94085191       1.97046093      15.13345513      -0.00005116      -0.00011493       0.12049141
Ti       1.97047269       1.97057450      11.94894568      -0.00000489       0.00017766      -0.15935003
Ti       1.97020076       3.94088573      16.62755319       0.00036510       0.00007970      -0.09876121
O        0.00000902       1.97050521      12.19584423      -0.00003420      -0.00019515      -0.07896783
O        0.00018798       0.00000361      16.75159962      -0.00033219      -0.00000771       0.09655675
O        1.97049401       3.94093312      11.92361621       0.00001517      -0.00023963       0.11611565
O        1.97057142       1.97047936      16.73473658       0.00024066      -0.00006865       0.10047408
O        1.97043419       1.97038596      10.12145662       0.00006685       0.00036767      -0.17298202
O        1.97054157       3.94090180      14.80931194      -0.00014964       0.00005836      -0.13134609
10
Lattice="3.940949890606662 0.0 0.0 0.0 3.940949890606662 0.0 0.0 0.0 26.940967945119528" Properties=species:S:1:pos:R:3:forces:R:3 tau=tau05 tau_p=0 tau_q=5 stage=B constraint=xy_fixed_z_free force_label=raw_dft energy=-15499.439144073758 free_energy=-15499.439144073758 stress="0.010744280413063984 0.0 -9.181576151994517e-07 0.0 0.011221722372967698 1.8363152303989035e-06 -9.181576151994517e-07 1.8363152303989035e-06 -0.0008896947291282687" pbc="T T T"
Sr       0.00003612       0.00009431      10.41534071      -0.00012907      -0.00006171       0.10098599
Sr       3.94085191       1.97046093      15.17021249      -0.00005965      -0.00011236       0.00378878
Ti       1.97047269       1.97057450      11.91441668       0.00000154       0.00013473      -0.09939216
Ti       1.97020076       3.94088573      16.65122517       0.00042706       0.00009153      -0.05954084
O        0.00000902       1.97050521      12.15613108      -0.00003060      -0.00018769      -0.04666989
O        0.00018798       0.00000361      16.77698149      -0.00037898      -0.00001028       0.10702860
O        1.97049401       3.94093312      11.90333445       0.00001414      -0.00020775       0.15553940
O        1.97057142       1.97047936      16.76131824       0.00022677      -0.00007790       0.11474885
O        1.97043419       1.97038596      10.09035353       0.00007739       0.00037127      -0.12916682
O        1.97054157       3.94090180      14.83600613      -0.00014835       0.00005991      -0.14732190
10
Lattice="3.940949890606662 0.0 0.0 0.0 3.940949890606662 0.0 0.0 0.0 26.940967945119528" Properties=species:S:1:pos:R:3:forces:R:3 tau=tau05 tau_p=0 tau_q=5 stage=B constraint=xy_fixed_z_free force_label=raw_dft energy=-15499.443818445281 free_energy=-15499.443818445281 stress="0.01048444180796254 0.0 -1.8363152303989035e-06 0.0 0.011014218751932623 1.8363152303989035e-06 -1.8363152303989035e-06 1.8363152303989035e-06 -0.00029197412163342563" pbc="T T T"
Sr       0.00003612       0.00009431      10.40003691      -0.00013035      -0.00006376       0.02860429
Sr       3.94085191       1.97046093      15.19834088      -0.00007173      -0.00011673      -0.04277699
Ti       1.97047269       1.97057450      11.88270676       0.00001543       0.00009642      -0.03947698
Ti       1.97020076       3.94088573      16.67279501       0.00042218       0.00009333      -0.02736682
O        0.00000902       1.97050521      12.12201856      -0.00002880      -0.00018332      -0.04818916
O        0.00018798       0.00000361      16.80431960      -0.00036972      -0.00001080       0.06827333
O        1.97049401       3.94093312      11.88914135       0.00001337      -0.00018281       0.13438231
O        1.97057142       1.97047936      16.79003658       0.00022703      -0.00007173       0.07585191
O        1.97043419       1.97038596      10.05939960       0.00008099       0.00037667      -0.05377488
O        1.97054157       3.94090180      14.85652471      -0.00015838       0.00006299      -0.09552702
10
Lattice="3.940949890606662 0.0 0.0 0.0 3.940949890606662 0.0 0.0 0.0 26.940967945119528" Properties=species:S:1:pos:R:3:forces:R:3 tau=tau05 tau_p=0 tau_q=5 stage=B constraint=xy_fixed_z_free force_label=raw_dft energy=-15499.445585960719 free_energy=-15499.445585960719 stress="0.010485359965577739 -0.0 -1.8363152303989035e-06 -0.0 0.011206113693509307 1.8363152303989035e-06 -1.8363152303989035e-06 1.8363152303989035e-06 0.0002166851971870706" pbc="T T T"
Sr       0.00003612       0.00009431      10.39079174      -0.00013190      -0.00006582       0.00666687
Sr       3.94085191       1.97046093      15.21023430      -0.00008793      -0.00011776      -0.03575839
Ti       1.97047269       1.97057450      11.86590717       0.00001466       0.00008228      -0.00849775
Ti       1.97020076       3.94088573      16.68443712       0.00042706       0.00009205      -0.01075004
O        0.00000902       1.97050521      12.10126463      -0.00003265      -0.00018306      -0.04471097
O        0.00018798       0.00000361      16.82040257      -0.00035044      -0.00000951       0.02744781
O        1.97049401       3.94093312      11.88652542       0.00000951      -0.00016918       0.08574243
O        1.97057142       1.97047936      16.80723462       0.00023551      -0.00006608       0.03279185
O        1.97043419       1.97038596      10.04240770       0.00008587       0.00037615      -0.00698852
O        1.97054157       3.94090180      14.86611469      -0.00016969       0.00006094      -0.04594330
10
Lattice="3.940949890606662 0.0 0.0 0.0 3.940949890606662 0.0 0.0 0.0 26.940967945119528" Properties=species:S:1:pos:R:3:forces:R:3 tau=tau05 tau_p=0 tau_q=5 stage=B constraint=xy_fixed_z_free force_label=raw_dft energy=-15499.446343389589 free_energy=-15499.446343389589 stress="0.01046516049804335 0.0 -1.8363152303989035e-06 0.0 0.011442080200615568 1.8363152303989035e-06 -1.8363152303989035e-06 1.8363152303989035e-06 0.0004324522367589417" pbc="T T T"
Sr       0.00003612       0.00009431      10.38904429      -0.00013447      -0.00006608       0.00475217
Sr       3.94085191       1.97046093      15.21145489      -0.00009307      -0.00011621      -0.01752541
Ti       1.97047269       1.97057450      11.86131142       0.00002005       0.00006865       0.00348976
Ti       1.97020076       3.94088573      16.68714467       0.00041035       0.00008845      -0.00490001
O        0.00000902       1.97050521      12.09158260      -0.00003214      -0.00018101      -0.02905912
O        0.00018798       0.00000361      16.82529387      -0.00033347      -0.00000874       0.00327147
O        1.97049401       3.94093312      11.89146779       0.00000746      -0.00016198       0.03984567
O        1.97057142       1.97047936      16.81283291       0.00024143      -0.00006119       0.00605675
O        1.97043419       1.97038596      10.03783461       0.00008845       0.00037692       0.00845147
O        1.97054157       3.94090180      14.86735290      -0.00017458       0.00006145      -0.01438275
10
Lattice="3.940949890606662 0.0 0.0 0.0 3.940949890606662 0.0 0.0 0.0 26.940967945119528" Properties=species:S:1:pos:R:3:forces:R:3 tau=tau05 tau_p=0 tau_q=5 stage=B constraint=xy_fixed_z_free force_label=raw_dft energy=-15499.446724621075 free_energy=-15499.446724621075 stress="0.010384362627905798 0.0 -1.8363152303989035e-06 0.0 0.01160459409850587 1.8363152303989035e-06 -1.8363152303989035e-06 1.8363152303989035e-06 0.00040582566591815765" pbc="T T T"
Sr       0.00003612       0.00009431      10.39332504      -0.00013421      -0.00006813       0.00751765
Sr       3.94085191       1.97046093      15.20635897      -0.00009513      -0.00011750      -0.00317531
Ti       1.97047269       1.97057450      11.86500749       0.00001723       0.00007533       0.00235744
Ti       1.97020076       3.94088573      16.68323547       0.00040803       0.00008947      -0.00216024
O        0.00000902       1.97050521      12.09082448      -0.00003420      -0.00018126      -0.00862939
O        0.00018798       0.00000361      16.82205749      -0.00032576      -0.00000926      -0.00603566
O        1.97049401       3.94093312      11.90008120       0.00000643      -0.00016224       0.00694224
O        1.97057142       1.97047936      16.80987522       0.00024554      -0.00006119      -0.00519363
O        1.97043419       1.97038596      10.04175607       0.00008922       0.00037487       0.00632877
O        1.97054157       3.94090180      14.86279853      -0.00017689       0.00005965       0.00204788
