10
Lattice="3.940949890606662 0.0 0.0 0.0 3.940949890606662 0.0 0.0 0.0 26.940967945119528" Properties=species:S:1:pos:R:3:forces:R:3 energy=-15499.787637681844 free_energy=-15499.787637681844 stress="0.008327689569859027 9.181576151994517e-07 -9.181576151994517e-07 9.181576151994517e-07 0.010920566675182278 0.014006494419867635 -9.181576151994517e-07 0.014006494419867635 -0.006154410494681925" pbc="T T T"
Sr       0.00003626       0.00009419      10.75260867      -0.00007276      -0.00053582       0.15161281
Sr       3.94085176       0.78817579      14.64522241      -0.00003342      -0.64158614       1.39477719
Ti       1.97047258       1.97057465      12.38212169      -0.00002160       0.47416542      -0.38917323
Ti       1.97020066       2.75860069      16.28444791      -0.00073534      -0.13190222       0.02880998
O        0.00000906       1.97050529      12.45001441      -0.00005219      -0.17893875      -0.26293258
O        0.00018798       2.75866847      16.39256827       0.00047874      -0.05407493      -0.04332617
O        1.97049386       3.94093294      12.44909065       0.00000206       1.79696534      -1.13138721
O        1.97057150       0.78819431      16.37955485       0.00042757      -0.00539649      -0.04267491
O        1.97043435       1.97038588      10.49176941       0.00010722       0.29425067       0.13747457
O        1.97054155       2.75861684      14.44792112      -0.00010053      -1.55294708       0.15681955
10
Lattice="3.940949890606662 0.0 0.0 0.0 3.940949890606662 0.0 0.0 0.0 26.940967945119528" Properties=species:S:1:pos:R:3:forces:R:3 energy=-15499.852669215745 free_energy=-15499.852669215745 stress="0.007634480570383441 9.181576151994517e-07 -9.181576151994517e-07 9.181576151994517e-07 0.010086879560581175 0.013193006772800922 -9.181576151994517e-07 0.013193006772800922 -0.006255407832353865" pbc="T T T"
Sr       0.00003612       0.00009431      10.75572917      -0.00007482      -0.00050574       0.12347697
Sr       3.94085191       0.78817596      14.67392961      -0.00002931      -0.56098823       1.09101163
Ti       1.97047269       1.97057450      12.37411211      -0.00001671       0.45758231      -0.36273381
Ti       1.97020076       2.75860075      16.28504088      -0.00060729      -0.12742387      -0.02325768
O        0.00000902       1.97050521      12.44460286      -0.00005219      -0.22114958      -0.13687371
O        0.00018798       2.75866855      16.39167660       0.00038232      -0.05191957       0.01881585
O        1.97049401       3.94093312      12.42580475       0.00001003       1.68000791      -0.93469781
O        1.97057142       0.78819439      16.37867648       0.00038644      -0.00344476       0.01992374
O        1.97043419       1.97038596      10.49459885       0.00010593       0.28985383       0.01309411
O        1.97054157       2.75861683      14.45114866      -0.00010362      -1.46201256       0.19124071
10
Lattice="3.940949890606662 0.0 0.0 0.0 3.940949890606662 0.0 0.0 0.0 26.940967945119528" Properties=species:S:1:pos:R:3:forces:R:3 energy=-15499.909815706946 free_energy=-15499.909815706946 stress="0.006816402135240729 9.181576151994517e-07 -9.181576151994517e-07 9.181576151994517e-07 0.00907506986863138 0.01232075703836144 -9.181576151994517e-07 0.01232075703836144 -0.006579517470519271" pbc="T T T"
Sr       0.00003612       0.00009431      10.75929553      -0.00007508      -0.00080218       0.07666284
Sr       3.94085191       0.78817596      14.70550721      -0.00002237      -0.48248062       0.78901242
Ti       1.97047269       1.97057450      12.36370271      -0.00001337       0.44376469      -0.31506658
Ti       1.97020076       2.75860075      16.28443789      -0.00044249      -0.12144426       0.00584926
O        0.00000902       1.97050521      12.44053585      -0.00005708      -0.25759368      -0.03221104
O        0.00018798       2.75866855      16.39214044       0.00026765      -0.04979353       0.07288538
O        1.97049401       3.94093312      12.39882758       0.00001723       1.54936990      -0.71924220
O        1.97057142       0.78819439      16.37917147       0.00033399      -0.00111046       0.07411976
O        1.97043419       1.97038596      10.49512255       0.00009487       0.28288691      -0.10198898
O        1.97054157       2.75861683      14.45657875      -0.00010336      -1.36279678       0.14997913
10
Lattice="3.940949890606662 0.0 0.0 0.0 3.940949890606662 0.0 0.0 0.0 26.940967945119528" Properties=species:S:1:pos:R:3:forces:R:3 energy=-15499.96789255536 free_energy=-15499.96789255536 stress="0.00559249803417986 0.0 -9.181576151994517e-07 0.0 0.0075151200804075115 0.01108583504591818 -9.181576151994517e-07 0.01108583504591818 -0.006973407087439836" pbc="T T T"
Sr       0.00003612       0.00009431      10.76412564      -0.00009307      -0.00138094      -0.02061999
Sr       3.94085191       0.78817596      14.75287361      -0.00000514      -0.38035975       0.35945488
Ti       1.97047269       1.97057450      12.34606026       0.00000077       0.42570141      -0.23577684
Ti       1.97020076       2.75860075      16.28453116      -0.00023397      -0.11217415       0.05976838
O        0.00000902       1.97050521      12.43701244      -0.00005682      -0.29998680       0.07658159
O        0.00018798       2.75866855      16.39513881       0.00011184      -0.04662541       0.15125080
O        1.97049401       3.94093312      12.35670079       0.00002237       1.36407847      -0.40623121
O        1.97057142       0.78819439      16.38223302       0.00026225       0.00205843       0.15276441
O        1.97043419       1.97038596      10.49157025       0.00010002       0.27043532      -0.23286019
O        1.97054157       2.75861683      14.46507398      -0.00010799      -1.22174683       0.09566792
10
Lattice="3.940949890606662 0.0 0.0 0.0 3.940949890606662 0.0 0.0 0.0 26.940967945119528" Properties=species:S:1:pos:R:3:forces:R:3 energy=-15499.998495157939 free_energy=-15499.998495157939 stress="0.004148236105471123 0.0 -9.181576151994517e-07 0.0 0.0056273880235574395 0.009726961775422992 -9.181576151994517e-07 0.009726961775422992 -0.007214882540237291" pbc="T T T"
Sr       0.00003612       0.00009431      10.76740924      -0.00010053      -0.00241092      -0.16782105
Sr       3.94085191       0.78817596      14.80878324       0.00001234      -0.27935653      -0.10954236
Ti       1.97047269       1.97057450      12.32155835       0.00000514       0.40914916      -0.13311450
Ti       1.97020076       2.75860075      16.28721339       0.00002134      -0.10155138       0.12787613
O        0.00000902       1.97050521      12.43639692      -0.00005502      -0.33590383       0.13335207
O        0.00018798       2.75866855      16.40348623      -0.00005168      -0.04289783       0.23158338
O        1.97049401       3.94093312      12.30383709       0.00003008       1.16133593      -0.05178150
O        1.97057142       0.78819439      16.39069339       0.00016455       0.00509207       0.23370274
O        1.97043419       1.97038596      10.47989356       0.00009359       0.25242808      -0.31411116
O        1.97054157       2.75861683      14.47604854      -0.00011956      -1.06588450       0.04985626
10
Lattice="3.940949890606662 0.0 0.0 0.0 3.940949890606662 0.0 0.0 0.0 26.940967945119528" Properties=species:S:1:pos:R:3:forces:R:3 energy=-15500.00551338201 free_energy=-15500.00551338201 stress="0.004218016084226281 0.0 -9.181576151994517e-07 0.0 0.005567707778569475 0.00946161422463035 -9.181576151994517e-07 0.00946161422463035 -0.006666742443963218" pbc="T T T"
Sr       0.00003612       0.00009431      10.76437185      -0.00010336      -0.00258550      -0.19869151
Sr       3.94085191       0.78817596      14.81901143       0.00001003      -0.26164523      -0.16368980
Ti       1.97047269       1.97057450      12.31338002       0.00001080       0.40991123      -0.11254207
Ti       1.97020076       2.75860075      16.29073443       0.00003651      -0.10016529       0.14005673
O        0.00000902       1.97050521      12.43874175      -0.00005116      -0.34067477       0.09794952
O        0.00018798       2.75866855      16.41021008      -0.00005862      -0.04199049       0.22183504
O        1.97049401       3.94093312      12.29098758       0.00003214       1.11821570       0.00383120
O        1.97057142       0.78819439      16.39748770       0.00015684       0.00557878       0.22318358
O        1.97043419       1.97038596      10.47093941       0.00009385       0.24592370      -0.25912555
O        1.97054157       2.75861683      14.47945572      -0.00012650      -1.03256840       0.04719260
10
Lattice="3.940949890606662 0.0 0.0 0.0 3.940949890606662 0.0 0.0 0.0 26.940967945119528" Properties=species:S:1:pos:R:3:forces:R:3 energy=-15500.01564118697 free_energy=-15500.01564118697 stress="0.004702803305051592 0.0 -9.181576151994517e-07 0.0 0.005878963210122089 0.009210957195680899 -9.181576151994517e-07 0.009210957195680899 -0.005576889354721469" pbc="T T T"
Sr       0.00003612       0.00009431      10.75681443      -0.00010516      -0.00260196      -0.21340490
Sr       3.94085191       0.78817596      14.82713384       0.00000180      -0.24625023      -0.17088246
Ti       1.97047269       1.97057450      12.30227276       0.00000720       0.41470840      -0.07447792
Ti       1.97020076       2.75860075      16.29758659       0.00003394      -0.09975443       0.14179891
O        0.00000902       1.97050521      12.44261145      -0.00004551      -0.34363231       0.02164457
O        0.00018798       2.75866855      16.42178763      -0.00003805      -0.04096616       0.18577583
O        1.97049401       3.94093312      12.27704280       0.00003420       1.07380015       0.03498963
O        1.97057142       0.78819439      16.40916024       0.00016224       0.00585800       0.18554572
O        1.97043419       1.97038596      10.45680494       0.00008742       0.23712539      -0.16417368
O        1.97054157       2.75861683      14.48410528      -0.00013833      -0.99828685       0.05318404
10
Lattice="3.940949890606662 0.0 0.0 0.0 3.940949890606662 0.0 0.0 0.0 26.940967945119528" Properties=species:S:1:pos:R:3:forces:R:3 energy=-15500.027459090981 free_energy=-15500.027459090981 stress="0.00574399404068777 0.0 -9.181576151994517e-07 0.0 0.006674087704884814 0.00894193701442746 -9.181576151994517e-07 0.00894193701442746 -0.0037662825375481507" pbc="T T T"
Sr       0.00003612       0.00009431      10.74192791      -0.00010696      -0.00249063      -0.20270834
Sr       3.94085191       0.78817596      14.83381517      -0.00001517      -0.23134658      -0.12430950
Ti       1.97047269       1.97057450      12.28663448       0.00000129       0.42399985      -0.01486355
Ti       1.97020076       2.75860075      16.30984564      -0.00000437      -0.10022314       0.12828519
O        0.00000902       1.97050521      12.44720443      -0.00003728      -0.34495437      -0.09858844
O        0.00018798       2.75866855      16.44072085       0.00001594      -0.03953560       0.11689855
O        1.97049401       3.94093312      12.25995244       0.00003394       1.02148103       0.04409879
O        1.97057142       0.78819439      16.42819317       0.00018615       0.00593231       0.11424234
O        1.97043419       1.97038596      10.43560325       0.00008176       0.22487074      -0.03070437
O        1.97054157       2.75861683      14.49142261      -0.00015529      -0.95773387       0.06764907
10
Lattice="3.940949890606662 0.0 0.0 0.0 3.940949890606662 0.0 0.0 0.0 26.940967945119528" Properties=species:S:1:pos:R:3:forces:R:3 energy=-15500.035265220671 free_energy=-15500.035265220671 stress="0.0072470180567692725 0.0 -9.181576151994517e-07 0.0 0.007899828121176082 0.008686689197402012 -9.181576151994517e-07 0.008686689197402012 -0.001502105858466303" pbc="T T T"
Sr       0.00003612       0.00009431      10.71910826      -0.00010362      -0.00195532      -0.14907847
Sr       3.94085191       0.78817596      14.83767897      -0.00003857      -0.21929684      -0.02548580
Ti       1.97047269       1.97057450      12.26902405      -0.00000489       0.43624036       0.04579855
Ti       1.97020076       2.75860075      16.32751218      -0.00009770      -0.10145882       0.09476006
O        0.00000902       1.97050521      12.44887663      -0.00002905      -0.34410153      -0.22394591
O        0.00018798       2.75866855      16.46538332       0.00009950      -0.03775356       0.02674719
O        1.97049401       3.94093312      12.24211610       0.00003085       0.96771052       0.03127618
O        1.97057142       0.78819439      16.45287481       0.00022986       0.00577855       0.02153196
O        1.97043419       1.97038596      10.41091561       0.00008022       0.21104515       0.09862649
O        1.97054157       2.75861683      14.50183004      -0.00016661      -0.91620875       0.07976976
10
Lattice="3.940949890606662 0.0 0.0 0.0 3.940949890606662 0.0 0.0 0.0 26.940967945119528" Properties=species:S:1:pos:R:3:forces:R:3 energy=-15500.03784091421 free_energy=-15500.03784091421 stress="0.00780433972919534 0.0 -9.181576151994517e-07 0.0 0.008425932434685368 0.008627927110029247 -9.181576151994517e-07 0.008627927110029247 -0.0007822702881499328" pbc="T T T"
Sr       0.00003612       0.00009431      10.70844655      -0.00010053      -0.00147813      -0.10138528
Sr       3.94085191       0.78817596      14.83745141      -0.00004551      -0.21727184       0.01897551
Ti       1.97047269       1.97057450      12.26468657      -0.00000540       0.44176206       0.04383011
Ti       1.97020076       2.75860075      16.33526141      -0.00012804      -0.10224660       0.06876981
O        0.00000902       1.97050521      12.44464410      -0.00003034      -0.34297591      -0.22940437
O        0.00018798       2.75866855      16.47398272       0.00012830      -0.03682000       0.00164859
O        1.97049401       3.94093312      12.23782051       0.00003060       0.95270865       0.02481243
O        1.97057142       0.78819439      16.46136335       0.00024271       0.00561632      -0.00361060
O        1.97043419       1.97038596      10.40478785       0.00008048       0.20688587       0.10397335
O        1.97054157       2.75861683      14.50687550      -0.00017226      -0.90618068       0.07239070
10
Lattice="3.940949890606662 0.0 0.0 0.0 3.940949890606662 0.0 0.0 0.0 26.940967945119528" Properties=species:S:1:pos:R:3:forces:R:3 energy=-15500.040761920212 free_energy=-15500.040761920212 stress="0.008264336694410264 0.0 -9.181576151994517e-07 0.0 0.00892357386212347 0.008570083180271682 -9.181576151994517e-07 0.008570083180271682 -0.00022127598526306785" pbc="T T T"
Sr       0.00003612       0.00009431      10.69671867      -0.00009847      -0.00088215      -0.03804179
Sr       3.94085191       0.78817596      14.83755113      -0.00005065      -0.21495451       0.05442794
Ti       1.97047269       1.97057450      12.26171775      -0.00000411       0.44695672       0.02230252
Ti       1.97020076       2.75860075      16.34369483      -0.00016095      -0.10292563       0.03406197
O        0.00000902       1.97050521      12.43575132      -0.00003265      -0.34178831      -0.19471067
O        0.00018798       2.75866855      16.48184774       0.00014887      -0.03555347      -0.01236521
O        1.97049401       3.94093312      12.23471292       0.00002931       0.93873368       0.02529708
O        1.97057142       0.78819439      16.46900854       0.00025891       0.00545254      -0.01672348
O        1.97043419       1.97038596      10.40122798       0.00008253       0.20313592       0.07209013
O        1.97054157       2.75861683      14.51308908      -0.00017252      -0.89817504       0.05366149
10
Lattice="3.940949890606662 0.0 0.0 0.0 3.940949890606662 0.0 0.0 0.0 26.940967945119528" Properties=species:S:1:pos:R:3:forces:R:3 energy=-15500.043457888069 free_energy=-15500.043457888069 stress="0.008628845267644448 0.0 -9.181576151994517e-07 0.0 0.009431315023328769 0.008469085842599743 -9.181576151994517e-07 0.008469085842599743 0.0002451480832582536" pbc="T T T"
Sr       0.00003612       0.00009431      10.68171205      -0.00009642      -0.00007019       0.05021107
Sr       3.94085191       0.78817596      14.83992617      -0.00005374      -0.20957473       0.07382974
Ti       1.97047269       1.97057450      12.25880627      -0.00000463       0.45116124      -0.02637309
Ti       1.97020076       2.75860075      16.35473460      -0.00018229      -0.10332132      -0.01184867
O        0.00000902       1.97050521      12.41815951      -0.00004011      -0.34024925      -0.09976215
O        0.00018798       2.75866855      16.49072929       0.00015632      -0.03348630      -0.01452956
O        1.97049401       3.94093312      12.23188639       0.00002777       0.92038140       0.03807932
O        1.97057142       0.78819439      16.47747057       0.00027331       0.00532630      -0.01625554
O        1.97043419       1.97038596      10.39939833       0.00008767       0.19832873      -0.00970926
O        1.97054157       2.75861683      14.52249679      -0.00016738      -0.88849638       0.01635762
10
Lattice="3.940949890606662 0.0 0.0 0.0 3.940949890606662 0.0 0.0 0.0 26.940967945119528" Properties=species:S:1:pos:R:3:forces:R:3 energy=-15500.04410565506 free_energy=-15500.04410565506 stress="0.008509484777668518 0.0 -9.181576151994517e-07 0.0 0.009389997930644793 0.008413078228072576 -9.181576151994517e-07 0.008413078228072576 0.0001689410011966991" pbc="T T T"
Sr       0.00003612       0.00009431      10.68004332      -0.00009539       0.00002314       0.05920608
Sr       3.94085191       0.78817596      14.84290346      -0.00005219      -0.20544014       0.05246310
Ti       1.97047269       1.97057450      12.25787466      -0.00000283       0.44891024      -0.04086486
Ti       1.97020076       2.75860075      16.35653872      -0.00016789      -0.10301639      -0.01580071
O        0.00000902       1.97050521      12.41116518      -0.00004371      -0.33997260      -0.05472773
O        0.00018798       2.75866855      16.49164285       0.00014321      -0.03277488      -0.00526819
O        1.97049401       3.94093312      12.23206201       0.00002700       0.91583697       0.04557615
O        1.97057142       0.78819439      16.47823706       0.00027074       0.00545922      -0.00546334
O        1.97043419       1.97038596      10.39983553       0.00008716       0.19686011      -0.03886891
O        1.97054157       2.75861683      14.52501719      -0.00016609      -0.88588594       0.00374815
10
Lattice="3.940949890606662 0.0 0.0 0.0 3.940949890606662 0.0 0.0 0.0 26.940967945119528" Properties=species:S:1:pos:R:3:forces:R:3 energy=-15500.044709475671 free_energy=-15500.044709475671 stress="0.008245973542106275 0.0 -9.181576151994517e-07 0.0 0.009219220614217694 0.008329525885089426 -9.181576151994517e-07 0.008329525885089426 7.345260921595614e-06" pbc="T T T"
Sr       0.00003612       0.00009431      10.68088574      -0.00009642      -0.00004474       0.04718283
Sr       3.94085191       0.78817596      14.84780808      -0.00005039      -0.19882032       0.01288997
Ti       1.97047269       1.97057450      12.25569368      -0.00000051       0.44311292      -0.04416898
Ti       1.97020076       2.75860075      16.35733273      -0.00014064      -0.10253817      -0.00965321
O        0.00000902       1.97050521      12.40347142      -0.00004705      -0.33942470      -0.00901352
O        0.00018798       2.75866855      16.49192967       0.00011956      -0.03198247       0.00685636
O        1.97049401       3.94093312      12.23317950       0.00002674       0.91209113       0.04702805
O        1.97057142       0.78819439      16.47840016       0.00026380       0.00577598       0.00864893
O        1.97043419       1.97038596      10.39937207       0.00008922       0.19466413      -0.05367152
O        1.97054157       2.75861683      14.52724692      -0.00016429      -0.88283352      -0.00609943
10
Lattice="3.940949890606662 0.0 0.0 0.0 3.940949890606662 0.0 0.0 0.0 26.940967945119528" Properties=species:S:1:pos:R:3:forces:R:3 energy=-15500.045045808372 free_energy=-15500.045045808372 stress="0.00807244175283358 0.0 -9.181576151994517e-07 0.0 0.009104450912317763 0.008267091167255863 -9.181576151994517e-07 0.008267091167255863 -3.672630460797807e-05" pbc="T T T"
Sr       0.00003612       0.00009431      10.68253151      -0.00009873      -0.00018769       0.02603242
Sr       3.94085191       0.78817596      14.85137514      -0.00005065      -0.19364315      -0.01273442
Ti       1.97047269       1.97057450      12.25284104       0.00000360       0.43749249      -0.03303816
Ti       1.97020076       2.75860075      16.35772000      -0.00012110      -0.10237670      -0.00066077
O        0.00000902       1.97050521      12.39872889      -0.00004808      -0.33847210       0.00962518
O        0.00018798       2.75866855      16.49257662       0.00010542      -0.03143559       0.01078963
O        1.97049401       3.94093312      12.23474385       0.00002571       0.91103081       0.03524880
O        1.97057142       0.78819439      16.47902945       0.00025840       0.00607166       0.01376620
O        1.97043419       1.97038596      10.39726739       0.00008973       0.19243216      -0.04164030
O        1.97054157       2.75861683      14.52850607      -0.00016429      -0.88091137      -0.00738832
10
Lattice="3.940949890606662 0.0 0.0 0.0 3.940949890606662 0.0 0.0 0.0 26.940967945119528" Properties=species:S:1:pos:R:3:forces:R:3 energy=-15500.045239145256 free_energy=-15500.045239145256 stress="0.008025615714458407 0.0 -9.181576151994517e-07 0.0 0.009095269336165768 0.008228528547417485 -9.181576151994517e-07 0.008228528547417485 5.32531416815682e-05" pbc="T T T"
Sr       0.00003612       0.00009431      10.68358377      -0.00009950      -0.00033039       0.00751071
Sr       3.94085191       0.78817596      14.85319816      -0.00005065      -0.19025546      -0.01976073
Ti       1.97047269       1.97057450      12.24973024       0.00000257       0.43321880      -0.01408167
Ti       1.97020076       2.75860075      16.35850411      -0.00011519      -0.10257853       0.00450380
O        0.00000902       1.97050521      12.39590257      -0.00004834      -0.33722383       0.00961824
O        0.00018798       2.75866855      16.49398492       0.00010130      -0.03105481       0.00703582
O        1.97049401       3.94093312      12.23641139       0.00002545       0.91157537       0.01435781
O        1.97057142       0.78819439      16.48050916       0.00025737       0.00628326       0.01040577
O        1.97043419       1.97038596      10.39410960       0.00009102       0.19026163      -0.01582771
O        1.97054157       2.75861683      14.52938604      -0.00016481      -0.87989604      -0.00376204
