10
Lattice="3.940949890606662 0.0 0.0 0.0 3.940949890606662 0.0 0.0 0.0 26.940967945119528" Properties=species:S:1:pos:R:3:forces:R:3 tau=tau21 tau_p=2 tau_q=1 stage=A constraint=rigid_scf force_label=raw_dft energy=-15499.600771666563 free_energy=-15499.600771666563 stress="0.01130343840072045 0.000892449201973867 0.013128735739736962 0.000892449201973867 0.008605891327264461 0.005570462251415074 0.013128735739736962 0.005570462251415074 -0.0066786784929608115" pbc="T T T"
Sr       0.00003626       0.00009419      10.75260867       0.00039569      -0.00197486       0.19389589
Sr       0.78809185       0.39408080      14.64522241      -0.70655509      -0.45152248       1.63892991
Ti       1.97047258       1.97057465      12.38212169       0.59835047       0.55388350      -0.63588215
Ti       2.75839063       2.36450570      16.28444791      -0.12449873      -0.03792840      -0.01449177
O        0.00000906       1.97050529      12.45001441       1.64872710      -0.40874730      -1.02801035
O        0.78837796       2.36457348      16.39256827      -0.00157249       0.00594105      -0.08282475
O        1.97049386       3.94093294      12.44909065      -0.27758864       0.67099442      -0.40630809
O        2.75876148       0.39409932      16.37955485      -0.03959705      -0.00840802      -0.01156714
O        1.97043435       1.97038588      10.49176941       0.27114700       0.12780568       0.17268017
O        2.75873153       2.36452185      14.44792112      -1.36880853      -0.45004333       0.17357775
