10
Lattice="3.940949890606662 0.0 0.0 0.0 3.940949890606662 0.0 0.0 0.0 26.940967945119528" Properties=species:S:1:pos:R:3:forces:R:3 tau=tau33 tau_p=3 tau_q=3 stage=B constraint=xy_fixed_z_free force_label=raw_dft energy=-15499.343159182541 free_energy=-15499.343159182541 stress="0.010455978921891356 5.6925772142366004e-05 0.0018574328555484908 5.6925772142366004e-05 0.01063318334162485 0.0018611054860092886 0.0018574328555484908 0.0018611054860092886 -2.66265708407841e-05" pbc="T T T"
Sr       0.00003626       0.00009419      10.29108797      -0.00014398      -0.00008510       0.00512704
Sr       1.18218684       1.18227078      15.33541673      -0.12855721      -0.12870608      -0.00834297
Ti       1.97047258       1.97057465      11.74100836       0.13443270       0.13430157      -0.01165687
Ti       3.15248562       3.15269568      16.79177900      -0.01502578      -0.01555980      -0.01091099
O        0.00000906       1.97050529      11.88051286       0.16178024      -0.09855141      -0.00324062
O        1.18247295       3.15276346      16.92272494       0.00284467       0.00782927       0.04181488
O        1.97049386       3.94093294      11.88085533      -0.09843211       0.16207874      -0.00481079
O        3.15285647       1.18228930      16.93092448       0.00791823       0.00345659       0.00730193
O        1.97043435       1.97038588       9.92377646       0.01921951       0.01945425       0.00393713
O        3.15282651       3.15271183      14.97723326      -0.08403625      -0.08421803      -0.01921874
10
Lattice="3.940949890606662 0.0 0.0 0.0 3.940949890606662 0.0 0.0 0.0 26.940967945119528" Properties=species:S:1:pos:R:3:forces:R:3 tau=tau33 tau_p=3 tau_q=3 stage=B constraint=xy_fixed_z_free force_label=raw_dft energy=-15499.343206122177 free_energy=-15499.343206122177 stress="0.010451388133815359 5.6925772142366004e-05 0.0018574328555484908 5.6925772142366004e-05 0.010613902031705662 0.0018611054860092886 0.0018574328555484908 0.0018611054860092886 -4.6826038375172033e-05" pbc="T T T"
Sr       0.00003612       0.00009431      10.29119351      -0.00017226      -0.00010336       0.00503808
Sr       1.18218697       1.18227095      15.33524495      -0.12855079      -0.12867240      -0.00663473
Ti       1.97047269       1.97057450      11.74076850       0.13444556       0.13429977      -0.00432305
Ti       3.15248573       3.15269575      16.79155447      -0.01503067      -0.01553898      -0.00561015
O        0.00000902       1.97050521      11.88044617       0.16182806      -0.09859538      -0.00359646
O        1.18247295       3.15276354      16.92358577       0.00285110       0.00781538       0.03426226
O        1.97049401       3.94093312      11.88075621      -0.09847505       0.16209828      -0.00502496
O        3.15285639       1.18228938      16.93107502       0.00792080       0.00344348       0.00281510
O        1.97043419       1.97038596       9.92385757       0.01922799       0.01945168      -0.00138685
O        3.15282654       3.15271182      14.97683780      -0.08404473      -0.08419926      -0.01553898
10
Lattice="3.940949890606662 0.0 0.0 0.0 3.940949890606662 0.0 0.0 0.0 26.940967945119528" Properties=species:S:1:pos:R:3:forces:R:3 tau=tau33 tau_p=3 tau_q=3 stage=B constraint=xy_fixed_z_free force_label=raw_dft energy=-15499.343244082058 free_energy=-15499.343244082058 stress="0.010479851019886542 5.6925772142366004e-05 0.0018574328555484908 5.6925772142366004e-05 0.010624001765472856 0.0018611054860092886 0.0018574328555484908 0.0018611054860092886 -1.5608679458390678e-05" pbc="T T T"
Sr       0.00003612       0.00009431      10.29132997      -0.00017278      -0.00010876       0.00352935
Sr       1.18218697       1.18227095      15.33506097      -0.12855824      -0.12865877      -0.00409654
Ti       1.97047269       1.97057450      11.74063189       0.13447307       0.13432111      -0.00266521
Ti       3.15248573       3.15269575      16.79138853      -0.01503478      -0.01553306      -0.00158971
O        0.00000902       1.97050521      11.88034989       0.16191291      -0.09864706      -0.00347896
O        1.18247295       3.15276354      16.92453246       0.00287912       0.00779584       0.02662146
O        1.97049401       3.94093312      11.88062092      -0.09852313       0.16215613      -0.00473777
O        3.15285639       1.18228938      16.93116320       0.00792131       0.00344271      -0.00127758
O        1.97043419       1.97038596       9.92383438       0.01924034       0.01947199      -0.00286884
O        3.15282654       3.15271182      14.97640776      -0.08413755      -0.08424040      -0.00943621
10
Lattice="3.940949890606662 0.0 0.0 0.0 3.940949890606662 0.0 0.0 0.0 26.940967945119528" Properties=species:S:1:pos:R:3:forces:R:3 tau=tau33 tau_p=3 tau_q=3 stage=B constraint=xy_fixed_z_free force_label=raw_dft energy=-15499.343280273199 free_energy=-15499.343280273199 stress="0.010515659166879321 5.6925772142366004e-05 0.0018583510131636902 5.6925772142366004e-05 0.010628592553548854 0.0018611054860092886 0.0018583510131636902 0.0018611054860092886 2.66265708407841e-05" pbc="T T T"
Sr       0.00003612       0.00009431      10.29151840      -0.00018512      -0.00012058       0.00084384
Sr       1.18218697       1.18227095      15.33482490      -0.12857753      -0.12863898      -0.00107215
Ti       1.97047269       1.97057450      11.74044346       0.13452423       0.13435248      -0.00195044
Ti       3.15248573       3.15269575      16.79123869      -0.01504532      -0.01552329       0.00204017
O        0.00000902       1.97050521      11.88018120       0.16202012      -0.09871159      -0.00262664
O        1.18247295       3.15276354      16.92595248       0.00290638       0.00777116       0.01601952
O        1.97049401       3.94093312      11.88038833      -0.09858818       0.16221553      -0.00359080
O        3.15285639       1.18228938      16.93116962       0.00792645       0.00343062      -0.00588423
O        1.97043419       1.97038596       9.92374020       0.01925319       0.01948613      -0.00304419
O        3.15282654       3.15271182      14.97586269      -0.08423448      -0.08426174      -0.00073508
