Sr Ti O
 1.0000000000000000
     3.9409498906066620    0.0000000000000000    0.0000000000000000
     0.0000000000000000    3.9409498906066620    0.0000000000000000
     0.0000000000000000    0.0000000000000000   26.9409679451195281
 Sr  Ti  O
   2   2   6
Cartesian
  0.0000361212000000  0.0000943054000000 10.2997954026999992
  1.5762819608000000  3.1527459097000001 15.3220472996999995
  1.9704726885999999  1.9705745045000000 11.7511271707000002
  3.5465807222999999  1.1822207882000000 16.7822494161000009
  0.0000090208000000  1.9705052130000000 11.8521364831000007
  1.5765679447000001  1.1822885835000001 16.9176431317999985
  1.9704940097000001  3.9409331233999998 11.9290217669000000
  3.5469513860999999  3.1527643393000000 16.9225363711000014
  1.9704341934000000  1.9703859550000000  9.9333987613999994
  3.5469215339000000  1.1822368594999999 14.9653641597000000
