10
Lattice="3.940949890606662 0.0 0.0 0.0 3.940949890606662 0.0 0.0 0.0 26.940967945119528" Properties=species:S:1:pos:R:3:forces:R:3 tau=tau48 tau_p=4 tau_q=8 stage=B constraint=xy_fixed_z_free force_label=raw_dft energy=-15499.34157806508 free_energy=-15499.34157806508 stress="0.010725917260759995 -6.243471783356271e-05 0.0015094511193878984 -6.243471783356271e-05 0.011450343619152361 -0.0023220206088394135 0.0015094511193878984 -0.0023220206088394135 -0.0011541241223057108" pbc="T T T"
Sr       0.00003626       0.00009419      10.35548939      -0.00068263      -0.00029773       0.21187844
Sr       1.57628183       3.15274573      15.23823054      -0.06824119       0.22931052       0.06488179
Ti       1.97047258       1.97057465      11.84630226       0.11816379      -0.16648381      -0.14460835
Ti       3.54658061       1.18222073      16.71157161      -0.02081874       0.00914644      -0.12083362
O        0.00000906       1.97050529      11.89818290       0.12689423       0.11785166       0.10467449
O        1.57656794       1.18228851      16.81865667       0.00235307      -0.01875825       0.17390222
O        1.97049386       3.94093294      12.04668774      -0.09182489      -0.23155741      -0.10132640
O        3.54695145       3.15276425      16.83324016       0.00191264      -0.00454083       0.13968906
O        1.97043435       1.97038588      10.02536312       0.02100411      -0.02146948      -0.14129857
O        3.54692150       1.18223689      14.90159460      -0.08876065       0.08679916      -0.18695905
10
Lattice="3.940949890606662 0.0 0.0 0.0 3.940949890606662 0.0 0.0 0.0 26.940967945119528" Properties=species:S:1:pos:R:3:forces:R:3 tau=tau48 tau_p=4 tau_q=8 stage=B constraint=xy_fixed_z_free force_label=raw_dft energy=-15499.345432693663 free_energy=-15499.345432693663 stress="0.010711226738916804 -6.518919067916107e-05 0.0015048603313119013 -6.518919067916107e-05 0.011320883395409239 -0.002300902983689826 0.0015048603313119013 -0.002300902983689826 -0.0009539657621922303" pbc="T T T"
Sr       0.00003612       0.00009431      10.35985014      -0.00083047      -0.00008150       0.16885514
Sr       1.57628196       3.15274591      15.23956585      -0.06774985       0.22711197       0.05465651
Ti       1.97047269       1.97057450      11.84332612       0.11735646      -0.16548031      -0.12363047
Ti       3.54658072       1.18222079      16.70908488      -0.02079740       0.00881734      -0.08372052
O        0.00000902       1.97050521      11.90033739       0.12769975       0.11874871       0.08902419
O        1.57656794       1.18228858      16.82223600       0.00244589      -0.01844689       0.13344051
O        1.97049401       3.94093312      12.04460238      -0.09153050      -0.23068323      -0.10341414
O        3.54695139       3.15276434      16.83611547       0.00191213      -0.00447218       0.10179075
O        1.97043419       1.97038596      10.02245494       0.02079380      -0.02138746      -0.10300842
O        3.54692153       1.18223686      14.89774679      -0.08929981       0.08587382      -0.13399330
10
Lattice="3.940949890606662 0.0 0.0 0.0 3.940949890606662 0.0 0.0 0.0 26.940967945119528" Properties=species:S:1:pos:R:3:forces:R:3 tau=tau48 tau_p=4 tau_q=8 stage=B constraint=xy_fixed_z_free force_label=raw_dft energy=-15499.348576288783 free_energy=-15499.348576288783 stress="0.01070112700514961 -6.702550590955998e-05 0.0014993513856207048 -6.702550590955998e-05 0.01116846923128613 -0.0022751945704642413 0.0014993513856207048 -0.0022751945704642413 -0.0007629889782307444" pbc="T T T"
Sr       0.00003612       0.00009431      10.36464704      -0.00098602       0.00015941       0.12255189
Sr       1.57628196       3.15274591      15.24111601      -0.06724849       0.22448225       0.04322770
Ti       1.97047269       1.97057450      11.83982119       0.11636684      -0.16435443      -0.09214371
Ti       3.54658072       1.18222079      16.70669569      -0.02074366       0.00850778      -0.04811742
O        0.00000902       1.97050521      11.90286161       0.12856107       0.11975093       0.07098250
O        1.57656794       1.18228858      16.82603127       0.00253536      -0.01807717       0.09252809
O        1.97049401       3.94093312      12.04168406      -0.09107644      -0.22940257      -0.10407491
O        3.54695139       3.15276434      16.83901539       0.00191701      -0.00439093       0.06419119
O        1.97043419       1.97038596      10.01952038       0.02055931      -0.02133167      -0.07113703
O        3.54692153       1.18223686      14.89392734      -0.08988525       0.08465666      -0.07800881
10
Lattice="3.940949890606662 0.0 0.0 0.0 3.940949890606662 0.0 0.0 0.0 26.940967945119528" Properties=species:S:1:pos:R:3:forces:R:3 tau=tau48 tau_p=4 tau_q=8 stage=B constraint=xy_fixed_z_free force_label=raw_dft energy=-15499.351449130636 free_energy=-15499.351449130636 stress="0.010646955705852841 -6.977997875515833e-05 0.0014920061246991088 -6.977997875515833e-05 0.010868231691115908 -0.002233877477780266 0.0014920061246991088 -0.002233877477780266 -0.0005564035148108677" pbc="T T T"
Sr       0.00003612       0.00009431      10.37184240      -0.00124056       0.00053942       0.05243919
Sr       1.57628196       3.15274591      15.24358352      -0.06657357       0.22030472       0.02685749
Ti       1.97047269       1.97057450      11.83447594       0.11475733      -0.16257291      -0.04587079
Ti       3.54658072       1.18222079      16.70361447      -0.02063722       0.00797968       0.00198489
O        0.00000902       1.97050521      11.90690210       0.12982991       0.12130748       0.04395429
O        1.57656794       1.18228858      16.83155361       0.00265595      -0.01752901       0.03635231
O        1.97049401       3.94093312      12.03614483      -0.09016345      -0.22693508      -0.09826679
O        3.54695139       3.15276434      16.84298015       0.00193167      -0.00426083       0.01395132
O        1.97043419       1.97038596      10.01525444       0.02018573      -0.02128745      -0.02821863
O        3.54692153       1.18223686      14.88896850      -0.09074606       0.08245399      -0.00318303
10
Lattice="3.940949890606662 0.0 0.0 0.0 3.940949890606662 0.0 0.0 0.0 26.940967945119528" Properties=species:S:1:pos:R:3:forces:R:3 tau=tau48 tau_p=4 tau_q=8 stage=B constraint=xy_fixed_z_free force_label=raw_dft energy=-15499.352483027164 free_energy=-15499.352483027164 stress="0.010581766515173681 -7.161629398555724e-05 0.001485579021392713 -7.161629398555724e-05 0.010527595215876914 -0.0021916422274810914 0.001485579021392713 -0.0021916422274810914 -0.0004425519705261357" pbc="T T T"
Sr       0.00003612       0.00009431      10.37822326      -0.00148044       0.00087932      -0.01193840
Sr       1.57628196       3.15274591      15.24607216      -0.06611566       0.21617013       0.01264726
Ti       1.97047269       1.97057450      11.82951637       0.11314885      -0.16091815      -0.00720860
Ti       3.54658072       1.18222079      16.70167576      -0.02047627       0.00751739       0.03915044
O        0.00000902       1.97050521      11.91097007       0.13095194       0.12277069       0.01955015
O        1.57656794       1.18228858      16.83635040       0.00273874      -0.01702379      -0.00631566
O        1.97049401       3.94093312      12.02932512      -0.08899257      -0.22389552      -0.08295484
O        3.54695139       3.15276434      16.84603053       0.00195944      -0.00412842      -0.02185001
O        1.97043419       1.97038596      10.01152564       0.01979621      -0.02131290       0.00452103
O        3.54692153       1.18223686      14.88563065      -0.09153076       0.07994125       0.05439889
10
Lattice="3.940949890606662 0.0 0.0 0.0 3.940949890606662 0.0 0.0 0.0 26.940967945119528" Properties=species:S:1:pos:R:3:forces:R:3 tau=tau48 tau_p=4 tau_q=8 stage=B constraint=xy_fixed_z_free force_label=raw_dft energy=-15499.352770923604 free_energy=-15499.352770923604 stress="0.010560648890024093 -7.161629398555724e-05 0.0014846608637775133 -7.161629398555724e-05 0.010392626046442595 -0.0021778698632530995 0.0014846608637775133 -0.0021778698632530995 -0.0004866235360557094" pbc="T T T"
Sr       0.00003612       0.00009431      10.37942052      -0.00153598       0.00095054      -0.02644611
Sr       1.57628196       3.15274591      15.24691799      -0.06614317       0.21482184       0.00997614
Ti       1.97047269       1.97057450      11.82822915       0.11261560      -0.16048363      -0.00103564
Ti       3.54658072       1.18222079      16.70204939      -0.02044516       0.00740761       0.04104869
O        0.00000902       1.97050521      11.91232312       0.13118900       0.12314041       0.01363070
O        1.57656794       1.18228858      16.83734360       0.00274774      -0.01689035      -0.00889036
O        1.97049401       3.94093312      12.02600451      -0.08837062      -0.22238962      -0.07083621
O        3.54695139       3.15276434      16.84629343       0.00198823      -0.00408497      -0.02144274
O        1.97043419       1.97038596      10.01073348       0.01966405      -0.02137487       0.00674298
O        3.54692153       1.18223686      14.88600478      -0.09170971       0.07890304       0.05725281
10
Lattice="3.940949890606662 0.0 0.0 0.0 3.940949890606662 0.0 0.0 0.0 26.940967945119528" Properties=species:S:1:pos:R:3:forces:R:3 tau=tau48 tau_p=4 tau_q=8 stage=B constraint=xy_fixed_z_free force_label=raw_dft energy=-15499.353098684725 free_energy=-15499.353098684725 stress="0.010545958368180902 -7.069813637035779e-05 0.001483742706162314 -7.069813637035779e-05 0.010260411349853874 -0.0021650156566403074 0.001483742706162314 -0.0021650156566403074 -0.0005655850909628623" pbc="T T T"
Sr       0.00003612       0.00009431      10.37993278      -0.00156966       0.00099065      -0.03567380
Sr       1.57628196       3.15274591      15.24774331      -0.06626376       0.21356277       0.00887930
Ti       1.97047269       1.97057450      11.82719314       0.11212581      -0.16012830       0.00101687
Ti       3.54658072       1.18222079      16.70293914      -0.02040865       0.00731633       0.03802559
O        0.00000902       1.97050521      11.91359507       0.13133272       0.12341501       0.00870524
O        1.57656794       1.18228858      16.83804066       0.00274311      -0.01677825      -0.00579887
O        1.97049401       3.94093312      12.02235183      -0.08767256      -0.22072175      -0.05630073
O        3.54695139       3.15276434      16.84623137       0.00202089      -0.00404152      -0.01520396
O        1.97043419       1.97038596      10.01016815       0.01953216      -0.02145508       0.00444081
O        3.54692153       1.18223686      14.88712453      -0.09183955       0.07783989       0.05190980
10
Lattice="3.940949890606662 0.0 0.0 0.0 3.940949890606662 0.0 0.0 0.0 26.940967945119528" Properties=species:S:1:pos:R:3:forces:R:3 tau=tau48 tau_p=4 tau_q=8 stage=B constraint=xy_fixed_z_free force_label=raw_dft energy=-15499.353526175564 free_energy=-15499.353526175564 stress="0.010542285737720104 -6.977997875515833e-05 0.001483742706162314 -6.977997875515833e-05 0.010085961402965977 -0.0021475706619515176 0.001483742706162314 -0.0021475706619515176 -0.0006922908418603866" pbc="T T T"
Sr       0.00003612       0.00009431      10.37989844      -0.00159717       0.00100762      -0.04346656
Sr       1.57628196       3.15274591      15.24895756      -0.06650364       0.21182805       0.00886311
Ti       1.97047269       1.97057450      11.82587907       0.11145629      -0.15968119       0.00047668
Ti       3.54658072       1.18222079      16.70466850      -0.02035851       0.00723200       0.03021920
O        0.00000902       1.97050521      11.91532865       0.13145202       0.12371300       0.00165990
O        1.57656794       1.18228858      16.83891839       0.00272845      -0.01663632       0.00246646
O        1.97049401       3.94093312      12.01687282      -0.08661070      -0.21821287      -0.03436228
O        3.54695139       3.15276434      16.84600940       0.00207179      -0.00398521      -0.00231579
O        1.97043419       1.97038596      10.00944906       0.01933984      -0.02157953      -0.00207951
O        3.54692153       1.18223686      14.88933807      -0.09197839       0.07631471       0.03853878
10
Lattice="3.940949890606662 0.0 0.0 0.0 3.940949890606662 0.0 0.0 0.0 26.940967945119528" Properties=species:S:1:pos:R:3:forces:R:3 tau=tau48 tau_p=4 tau_q=8 stage=B constraint=xy_fixed_z_free force_label=raw_dft energy=-15499.353935570836 free_energy=-15499.353935570836 stress="0.010559730732408894 -6.702550590955998e-05 0.001483742706162314 -6.702550590955998e-05 0.009859176472011713 -0.002121862248725933 0.001483742706162314 -0.002121862248725933 -0.0008750042072850775" pbc="T T T"
Sr       0.00003612       0.00009431      10.37875065      -0.00160411       0.00098165      -0.04755384
Sr       1.57628196       3.15274591      15.25088215      -0.06689573       0.20930040       0.00991649
Ti       1.97047269       1.97057450      11.82402632       0.11046925      -0.15900962      -0.00374378
Ti       3.54658072       1.18222079      16.70770210      -0.02028292       0.00713173       0.01660264
O        0.00000902       1.97050521      11.91770001       0.13150704       0.12399865      -0.00943543
O        1.57656794       1.18228858      16.84032676       0.00270634      -0.01643655       0.01689652
O        1.97049401       3.94093312      12.00865431      -0.08500041      -0.21444234      -0.00245386
O        3.54695139       3.15276434      16.84582234       0.00214841      -0.00390345       0.01882125
O        1.97043419       1.97038596      10.00829001       0.01905085      -0.02174973      -0.01365821
O        3.54692153       1.18223686      14.89316531      -0.09209846       0.07412876       0.01460798
10
Lattice="3.940949890606662 0.0 0.0 0.0 3.940949890606662 0.0 0.0 0.0 26.940967945119528" Properties=species:S:1:pos:R:3:forces:R:3 tau=tau48 tau_p=4 tau_q=8 stage=B constraint=xy_fixed_z_free force_label=raw_dft energy=-15499.35409883914 free_energy=-15499.35409883914 stress="0.010605638613168867 -6.610734829436053e-05 0.001483742706162314 -6.610734829436053e-05 0.009765524395261368 -0.0021071717268827416 0.001483742706162314 -0.0021071717268827416 -0.000953047604577031" pbc="T T T"
Sr       0.00003612       0.00009431      10.37685173      -0.00158071       0.00091840      -0.04281118
Sr       1.57628196       3.15274591      15.25231928      -0.06712816       0.20770220       0.01157151
Ti       1.97047269       1.97057450      11.82279299       0.10985398      -0.15855273      -0.00895207
Ti       3.54658072       1.18222079      16.71000818      -0.02022738       0.00710987       0.00767706
O        0.00000902       1.97050521      11.91888322       0.13139803       0.12400225      -0.01797021
O        1.57656794       1.18228858      16.84160115       0.00268732      -0.01630928       0.02549763
O        1.97049401       3.94093312      12.00354515      -0.08397094      -0.21206125       0.01482498
O        3.54695139       3.15276434      16.84617050       0.00219469      -0.00385640       0.03130961
O        1.97043419       1.97038596      10.00724178       0.01885750      -0.02182224      -0.02112033
O        3.54692153       1.18223686      14.89590600      -0.09208432       0.07286918      -0.00002700
10
Lattice="3.940949890606662 0.0 0.0 0.0 3.940949890606662 0.0 0.0 0.0 26.940967945119528" Properties=species:S:1:pos:R:3:forces:R:3 tau=tau48 tau_p=4 tau_q=8 stage=B constraint=xy_fixed_z_free force_label=raw_dft energy=-15499.354272039596 free_energy=-15499.354272039596 stress="0.010686436483306418 -6.427103306396161e-05 0.0014828245485471144 -6.427103306396161e-05 0.009751752031033376 -0.0020952356778851486 0.0014828245485471144 -0.0020952356778851486 -0.0009548839198074298" pbc="T T T"
Sr       0.00003612       0.00009431      10.37399203      -0.00152441       0.00081710      -0.03179863
Sr       1.57628196       3.15274591      15.25389078      -0.06723923       0.20628295       0.01358674
Ti       1.97047269       1.97057450      11.82148644       0.10928885      -0.15804288      -0.01461029
Ti       3.54658072       1.18222079      16.71229175      -0.02018136       0.00713327       0.00196638
O        0.00000902       1.97050521      11.91936191       0.13111418       0.12376391      -0.02700121
O        1.57656794       1.18228858      16.84335904       0.00267420      -0.01618278       0.02958568
O        1.97049401       3.94093312      11.99948296      -0.08310063      -0.21009435       0.02441700
O        3.54695139       3.15276434      16.84728725       0.00223120      -0.00382169       0.03806055
O        1.97043419       1.97038596      10.00578530       0.01868164      -0.02182558      -0.02564958
O        3.54692153       1.18223686      14.89838250      -0.09194419       0.07196981      -0.00855663
10
Lattice="3.940949890606662 0.0 0.0 0.0 3.940949890606662 0.0 0.0 0.0 26.940967945119528" Properties=species:S:1:pos:R:3:forces:R:3 tau=tau48 tau_p=4 tau_q=8 stage=B constraint=xy_fixed_z_free force_label=raw_dft energy=-15499.354541432298 free_energy=-15499.354541432298 stress="0.010808551446127947 -6.335287544876216e-05 0.001478233760471117 -6.335287544876216e-05 0.009791232808486953 -0.002081463313657157 0.001478233760471117 -0.002081463313657157 -0.0008906128867434682" pbc="T T T"
Sr       0.00003612       0.00009431      10.36952708      -0.00143210       0.00066283      -0.01406651
Sr       1.57628196       3.15274591      15.25620774      -0.06722303       0.20446852       0.01618587
Ti       1.97047269       1.97057450      11.81949674       0.10852935      -0.15720393      -0.02144069
Ti       3.54658072       1.18222079      16.71527155      -0.02009703       0.00713275      -0.00145293
O        0.00000902       1.97050521      11.91920963       0.13053465       0.12319852      -0.03886377
O        1.57656794       1.18228858      16.84626985       0.00266161      -0.01600152       0.02983688
O        1.97049401       3.94093312      11.99501455      -0.08208710      -0.20782998       0.02991916
O        3.54695139       3.15276434      16.84962127       0.00226540      -0.00378184       0.04065788
O        1.97043419       1.97038596      10.00334036       0.01845332      -0.02175025      -0.02801525
O        3.54692153       1.18223686      14.90136119      -0.09160506       0.07110489      -0.01276090
10
Lattice="3.940949890606662 0.0 0.0 0.0 3.940949890606662 0.0 0.0 0.0 26.940967945119528" Properties=species:S:1:pos:R:3:forces:R:3 tau=tau48 tau_p=4 tau_q=8 stage=B constraint=xy_fixed_z_free force_label=raw_dft energy=-15499.354938854556 free_energy=-15499.354938854556 stress="0.010989428496322238 -6.151656021836326e-05 0.0014708884995495216 -6.151656021836326e-05 0.009901411722310887 -0.0020640183189683677 0.0014708884995495216 -0.0020640183189683677 -0.0007363624073899603" pbc="T T T"
Sr       0.00003612       0.00009431      10.36282447      -0.00128632       0.00044943       0.01101383
Sr       1.57628196       3.15274591      15.25982801      -0.06699832       0.20186785       0.01896420
Ti       1.97047269       1.97057450      11.81623581       0.10739292      -0.15581656      -0.02848397
Ti       3.54658072       1.18222079      16.71946268      -0.01990368       0.00712710      -0.00208722
O        0.00000902       1.97050521      11.91801251       0.12944939       0.12210426      -0.05419011
O        1.57656794       1.18228858      16.85101698       0.00264232      -0.01572512       0.02500192
O        1.97049401       3.94093312      11.98952301      -0.08078869      -0.20492104       0.03089155
O        3.54695139       3.15276434      16.85383742       0.00229445      -0.00373041       0.03785512
O        1.97043419       1.97038596       9.99928296       0.01812911      -0.02155510      -0.02765839
O        3.54692153       1.18223686      14.90529610      -0.09093118       0.07019934      -0.01130694
10
Lattice="3.940949890606662 0.0 0.0 0.0 3.940949890606662 0.0 0.0 0.0 26.940967945119528" Properties=species:S:1:pos:R:3:forces:R:3 tau=tau48 tau_p=4 tau_q=8 stage=B constraint=xy_fixed_z_free force_label=raw_dft energy=-15499.355482401952 free_energy=-15499.355482401952 stress="0.011228149476274095 -5.968024498796436e-05 0.0014543616624759315 -5.968024498796436e-05 0.010094224821502771 -0.0020383099057427827 0.0014543616624759315 -0.0020383099057427827 -0.00046091512283012476" pbc="T T T"
Sr       0.00003612       0.00009431      10.35277056      -0.00108629       0.00017972       0.04414816
Sr       1.57628196       3.15274591      15.26573409      -0.06636943       0.19791118       0.02167697
Ti       1.97047269       1.97057450      11.81067749       0.10565614      -0.15345578      -0.03590006
Ti       3.54658072       1.18222079      16.72575008      -0.01956481       0.00708287       0.00222375
O        0.00000902       1.97050521      11.91472988       0.12743081       0.12006846      -0.07271594
O        1.57656794       1.18228858      16.85878856       0.00260350      -0.01529678       0.01268454
O        1.97049401       3.94093312      11.98224328      -0.07900614      -0.20089957       0.02530454
O        3.54695139       3.15276434      16.86118721       0.00231451      -0.00366896       0.02693231
O        1.97043419       1.97038596       9.99248212       0.01763443      -0.02114707      -0.02262005
O        3.54692153       1.18223686      14.91095670      -0.08961297       0.06922592      -0.00173447
10
Lattice="3.940949890606662 0.0 0.0 0.0 3.940949890606662 0.0 0.0 0.0 26.940967945119528" Properties=species:S:1:pos:R:3:forces:R:3 tau=tau48 tau_p=4 tau_q=8 stage=B constraint=xy_fixed_z_free force_label=raw_dft energy=-15499.356132481911 free_energy=-15499.356132481911 stress="0.011496251499912334 -5.6007614527166554e-05 0.0014240624611743494 -5.6007614527166554e-05 0.010375181051753803 -0.0020015836011348046 0.0014240624611743494 -0.0020015836011348046 -4.6826038375172033e-05" pbc="T T T"
Sr       0.00003612       0.00009431      10.33883472      -0.00084949      -0.00012084       0.07937561
Sr       1.57628196       3.15274591      15.27511356      -0.06502551       0.19197450       0.02286379
Ti       1.97047269       1.97057450      11.80142474       0.10303670      -0.14959809      -0.04002128
Ti       3.54658072       1.18222079      16.73512253      -0.01900097       0.00701783       0.01246934
O        0.00000902       1.97050521      11.90755147       0.12387909       0.11652137      -0.08997087
O        1.57656794       1.18228858      16.87076037       0.00253999      -0.01465375      -0.00849698
O        1.97049401       3.94093312      11.97258058      -0.07659753      -0.19537607       0.01072099
O        3.54695139       3.15276434      16.87304504       0.00229317      -0.00357692       0.00553610
O        1.97043419       1.97038596       9.98167507       0.01692917      -0.02041584      -0.01157871
O        3.54692153       1.18223686      14.91921188      -0.08720488       0.06822808       0.01910201
10
Lattice="3.940949890606662 0.0 0.0 0.0 3.940949890606662 0.0 0.0 0.0 26.940967945119528" Properties=species:S:1:pos:R:3:forces:R:3 tau=tau48 tau_p=4 tau_q=8 stage=B constraint=xy_fixed_z_free force_label=raw_dft energy=-15499.356750588497 free_energy=-15499.356750588497 stress="0.011601839625660273 -5.32531416815682e-05 0.0013910087870271693 -5.32531416815682e-05 0.010567994150945689 -0.001967611769372425 0.0013910087870271693 -0.001967611769372425 0.00025800228987104596" pbc="T T T"
Sr       0.00003612       0.00009431      10.32806600      -0.00069754      -0.00028179       0.09115641
Sr       1.57628196       3.15274591      15.28413934      -0.06344454       0.18653739       0.02062179
Ti       1.97047269       1.97057450      11.79208030       0.10037510      -0.14572858      -0.03655774
Ti       3.54658072       1.18222079      16.74378809      -0.01809748       0.00696820       0.02177339
O        0.00000902       1.97050521      11.89865075       0.12008594       0.11280664      -0.09157781
O        1.57656794       1.18228858      16.88146414       0.00244178      -0.01408502      -0.02490396
O        1.97049401       3.94093312      11.96455246      -0.07461958      -0.19065681      -0.00372990
O        3.54695139       3.15276434      16.88409224       0.00222118      -0.00348462      -0.01308074
O        1.97043419       1.97038596       9.97153455       0.01631699      -0.01968051      -0.00055870
O        3.54692153       1.18223686      14.92695210      -0.08458209       0.06760510       0.03685754
10
Lattice="3.940949890606662 0.0 0.0 0.0 3.940949890606662 0.0 0.0 0.0 26.940967945119528" Properties=species:S:1:pos:R:3:forces:R:3 tau=tau48 tau_p=4 tau_q=8 stage=B constraint=xy_fixed_z_free force_label=raw_dft energy=-15499.357548154156 free_energy=-15499.357548154156 stress="0.011568785951513092 -4.958051122077039e-05 0.0013487735367279945 -4.958051122077039e-05 0.010680927537615223 -0.0019299673071492473 0.0013487735367279945 -0.0019299673071492473 0.00047193301421251816" pbc="T T T"
Sr       0.00003612       0.00009431      10.31797821      -0.00061578      -0.00035096       0.08413524
Sr       1.57628196       3.15274591      15.29469573      -0.06144859       0.18040660       0.01565982
Ti       1.97047269       1.97057450      11.78081036       0.09739005      -0.14114508      -0.02723827
Ti       3.54658072       1.18222079      16.75392841      -0.01707110       0.00678257       0.02822146
O        0.00000902       1.97050521      11.88661236       0.11539317       0.10832598      -0.07919846
O        1.57656794       1.18228858      16.89294087       0.00230988      -0.01345535      -0.03571519
O        1.97049401       3.94093312      11.95561811      -0.07248300      -0.18538682      -0.01673300
O        3.54695139       3.15276434      16.89624417       0.00212245      -0.00335195      -0.02770724
O        1.97043419       1.97038596       9.96012768       0.01567319      -0.01883642       0.00953159
O        3.54692153       1.18223686      14.93636407      -0.08127026       0.06701118       0.04904456
10
Lattice="3.940949890606662 0.0 0.0 0.0 3.940949890606662 0.0 0.0 0.0 26.940967945119528" Properties=species:S:1:pos:R:3:forces:R:3 tau=tau48 tau_p=4 tau_q=8 stage=B constraint=xy_fixed_z_free force_label=raw_dft energy=-15499.358534294706 free_energy=-15499.358534294706 stress="0.011365873118554012 -4.4071565529573677e-05 0.0012881751341248307 -4.4071565529573677e-05 0.010693781744228014 -0.0018748778502372804 0.0012881751341248307 -0.0018748778502372804 0.0005720121942692583" pbc="T T T"
Sr       0.00003612       0.00009431      10.30631667      -0.00061064      -0.00031676       0.05300252
Sr       1.57628196       3.15274591      15.30956223      -0.05862038       0.17205925       0.00703762
Ti       1.97047269       1.97057450      11.76469041       0.09344006      -0.13473018      -0.01025022
Ti       3.54658072       1.18222079      16.76860447      -0.01593493       0.00664142       0.02809727
O        0.00000902       1.97050521      11.86838448       0.10876486       0.10208231      -0.04721394
O        1.57656794       1.18228858      16.90773781       0.00214559      -0.01266011      -0.03722906
O        1.97049401       3.94093312      11.94255363      -0.06951569      -0.17802755      -0.02552437
O        3.54695139       3.15276434      16.91206536       0.00203734      -0.00320848      -0.03477931
O        1.97043419       1.97038596       9.94477616       0.01482832      -0.01778715       0.01700862
O        3.54692153       1.18223686      14.95062876      -0.07653454       0.06594751       0.04985086
10
Lattice="3.940949890606662 0.0 0.0 0.0 3.940949890606662 0.0 0.0 0.0 26.940967945119528" Properties=species:S:1:pos:R:3:forces:R:3 tau=tau48 tau_p=4 tau_q=8 stage=B constraint=xy_fixed_z_free force_label=raw_dft energy=-15499.359044644212 free_energy=-15499.359044644212 stress="0.011076653469766185 -3.9480777453576426e-05 0.0012441035685952571 -3.9480777453576426e-05 0.010542285737720104 -0.0018326425999381055 0.0012441035685952571 -0.0018326425999381055 0.0004315340791437423" pbc="T T T"
Sr       0.00003612       0.00009431      10.29966865      -0.00068494      -0.00025043       0.01312188
Sr       1.57628196       3.15274591      15.32055351      -0.05659975       0.16606035       0.00057901
Ti       1.97047269       1.97057450      11.75269531       0.09067124      -0.13029451       0.00320539
Ti       3.54658072       1.18222079      16.78012973      -0.01532326       0.00671726       0.01548858
O        0.00000902       1.97050521      11.85420010       0.10390239       0.09758365      -0.01127840
O        1.57656794       1.18228858      16.91729755       0.00201446      -0.01211941      -0.02231923
O        1.97049401       3.94093312      11.93168865      -0.06724026      -0.17232690      -0.01934318
O        3.54695139       3.15276434      16.92227413       0.00200649      -0.00309946      -0.02346800
O        1.97043419       1.97038596       9.93422703       0.01425291      -0.01711969       0.01361219
O        3.54692153       1.18223686      14.96258530      -0.07299953       0.06484888       0.03040175
10
Lattice="3.940949890606662 0.0 0.0 0.0 3.940949890606662 0.0 0.0 0.0 26.940967945119528" Properties=species:S:1:pos:R:3:forces:R:3 tau=tau48 tau_p=4 tau_q=8 stage=B constraint=xy_fixed_z_free force_label=raw_dft energy=-15499.359149952268 free_energy=-15499.359149952268 stress="0.010959129295020655 -3.764446222317752e-05 0.0012376764652888609 -3.764446222317752e-05 0.01041466182920738 -0.00182529733901651 0.0012376764652888609 -0.00182529733901651 0.0002653475507926415" pbc="T T T"
Sr       0.00003612       0.00009431      10.29979540      -0.00071117      -0.00020697      -0.00077082
Sr       1.57628196       3.15274591      15.32204730      -0.05638969       0.16512473      -0.00040906
Ti       1.97047269       1.97057450      11.75112717       0.09024469      -0.12970470       0.00379649
Ti       3.54658072       1.18222079      16.78224942      -0.01528984       0.00674169       0.00602564
O        0.00000902       1.97050521      11.85213648       0.10317323       0.09696658       0.00058673
O        1.57656794       1.18228858      16.91764313       0.00198206      -0.01205770      -0.00848310
O        1.97049401       3.94093312      11.92902177      -0.06677772      -0.17114908      -0.00821442
O        3.54695139       3.15276434      16.92253637       0.00201780      -0.00307992      -0.00938555
O        1.97043419       1.97038596       9.93339876       0.01418786      -0.01708421       0.00595159
O        3.54692153       1.18223686      14.96536416      -0.07243723       0.06444959       0.01090251
