10
Lattice="3.940949890606662 0.0 0.0 0.0 3.940949890606662 0.0 0.0 0.0 26.940967945119528" Properties=species:S:1:pos:R:3:forces:R:3 tau=tau08 tau_p=0 tau_q=8 stage=B constraint=xy_fixed_z_free force_label=raw_dft energy=-15499.787482985126 free_energy=-15499.787482985126 stress="0.008324935097013429 -9.181576151994517e-07 -9.181576151994517e-07 -9.181576151994517e-07 0.010920566675182278 -0.014004658104637238 -9.181576151994517e-07 -0.014004658104637238 -0.006153492337066726" pbc="T T T"
Sr       0.00003626       0.00009419      10.75260867      -0.00007019       0.00049108       0.15147834
Sr       3.94085176       3.15274573      14.64522241      -0.00002854       0.64160414       1.39601080
Ti       1.97047258       1.97057465      12.38212169      -0.00002725      -0.47433871      -0.38944937
Ti       1.97020066       1.18222073      16.28444791      -0.00074305       0.13178035       0.02892645
O        0.00000906       1.97050529      12.45001441      -0.00004962       0.17851581      -0.26316038
O        0.00018798       1.18228851      16.39256827       0.00048028       0.05405102      -0.04342696
O        1.97049386       3.94093294      12.44909065       0.00000180      -1.79711472      -1.13163249
O        1.97057150       3.15276425      16.37955485       0.00042860       0.00547516      -0.04267003
O        1.97043435       1.97038588      10.49176941       0.00010927      -0.29377605       0.13740207
O        1.97054155       1.18223689      14.44792112      -0.00010130       1.55331192       0.15652156
10
Lattice="3.940949890606662 0.0 0.0 0.0 3.940949890606662 0.0 0.0 0.0 26.940967945119528" Properties=species:S:1:pos:R:3:forces:R:3 tau=tau08 tau_p=0 tau_q=8 stage=B constraint=xy_fixed_z_free force_label=raw_dft energy=-15499.852560642325 free_energy=-15499.852560642325 stress="0.007638153200844238 -9.181576151994517e-07 -9.181576151994517e-07 -9.181576151994517e-07 0.010094224821502771 -0.013192088615185723 -9.181576151994517e-07 -0.013192088615185723 -0.006248062571432269" pbc="T T T"
Sr       0.00003612       0.00009431      10.75572640      -0.00007302       0.00048002       0.12383050
Sr       3.94085191       3.15274591      14.67395500      -0.00003240       0.56082830       1.09103786
Ti       1.97047269       1.97057450      12.37410642      -0.00001466      -0.45765096      -0.36305365
Ti       1.97020076       1.18222079      16.28504327      -0.00060884       0.12735805      -0.02298206
O        0.00000902       1.97050521      12.44459817      -0.00005194       0.22082202      -0.13688990
O        0.00018798       1.18228858      16.39167453       0.00038489       0.05192780       0.01872329
O        1.97049401       3.94093312      12.42579970       0.00000771      -1.68022851      -0.93468599
O        1.97057142       3.15276434      16.37867658       0.00038927       0.00347793       0.01981909
O        1.97043419       1.97038596      10.49459736       0.00010362      -0.28940106       0.01303061
O        1.97054157       1.18223686      14.45114253      -0.00010464       1.46238640       0.19117026
10
Lattice="3.940949890606662 0.0 0.0 0.0 3.940949890606662 0.0 0.0 0.0 26.940967945119528" Properties=species:S:1:pos:R:3:forces:R:3 tau=tau08 tau_p=0 tau_q=8 stage=B constraint=xy_fixed_z_free force_label=raw_dft energy=-15499.909754889502 free_energy=-15499.909754889502 stress="0.006830174499468721 -9.181576151994517e-07 -9.181576151994517e-07 -9.181576151994517e-07 0.009090678548089771 -0.012318920723131043 -9.181576151994517e-07 -0.012318920723131043 -0.0065583998453696835" pbc="T T T"
Sr       0.00003612       0.00009431      10.75930522      -0.00008150       0.00071374       0.07675437
Sr       3.94085191       3.15274591      14.70556053      -0.00002185       0.48228290       0.78821178
Ti       1.97047269       1.97057450      12.36367932      -0.00001517      -0.44376881      -0.31597829
Ti       1.97020076       1.18222079      16.28444739      -0.00043657       0.12144452       0.00578293
O        0.00000902       1.97050521      12.44052728      -0.00005939       0.25727769      -0.03206294
O        0.00018798       1.18228858      16.39213619       0.00026328       0.04976679       0.07325227
O        1.97049401       3.94093312      12.39880047       0.00001388      -1.54939073      -0.71890050
O        1.97057142       3.15276434      16.37916922       0.00034067       0.00109452       0.07439307
O        1.97043419       1.97038596      10.49511945       0.00010542      -0.28242000      -0.10189693
O        1.97054157       1.18223686      14.45657490      -0.00010850       1.36299964       0.15044399
10
Lattice="3.940949890606662 0.0 0.0 0.0 3.940949890606662 0.0 0.0 0.0 26.940967945119528" Properties=species:S:1:pos:R:3:forces:R:3 tau=tau08 tau_p=0 tau_q=8 stage=B constraint=xy_fixed_z_free force_label=raw_dft energy=-15499.967868745396 free_energy=-15499.967868745396 stress="0.005579643827567068 -0.0 -9.181576151994517e-07 -0.0 0.00750226587379472 -0.011082162415457383 -9.181576151994517e-07 -0.011082162415457383 -0.0069844249788222285" pbc="T T T"
Sr       0.00003612       0.00009431      10.76414975      -0.00009127       0.00133980      -0.02012711
Sr       3.94085191       3.15274591      14.75296882      -0.00000360       0.37997382       0.35888435
Ti       1.97047269       1.97057450      12.34597147      -0.00001208      -0.42578857      -0.23391691
Ti       1.97020076       1.18222079      16.28454052      -0.00023474       0.11222068       0.05964779
O        0.00000902       1.97050521      12.43700160      -0.00005245       0.29969961       0.07631060
O        0.00018798       1.18228858      16.39515065       0.00011416       0.04662027       0.15132716
O        1.97049401       3.94093312      12.35662593       0.00002417      -1.36384399      -0.40603144
O        1.97057142       3.15276434      16.38224336       0.00026559      -0.00207719       0.15279372
O        1.97043419       1.97038596      10.49156837       0.00009719      -0.26988407      -0.23381355
O        1.97054157       1.18223686      14.46509949      -0.00010670       1.22173937       0.09492539
10
Lattice="3.940949890606662 0.0 0.0 0.0 3.940949890606662 0.0 0.0 0.0 26.940967945119528" Properties=species:S:1:pos:R:3:forces:R:3 tau=tau08 tau_p=0 tau_q=8 stage=B constraint=xy_fixed_z_free force_label=raw_dft energy=-15499.998397469071 free_energy=-15499.998397469071 stress="0.004151908735931921 -0.0 -9.181576151994517e-07 -0.0 0.005632896969248636 -0.009726043617807791 -9.181576151994517e-07 -0.009726043617807791 -0.007204782806470097" pbc="T T T"
Sr       0.00003612       0.00009431      10.76745929      -0.00010079       0.00231965      -0.16884717
Sr       3.94085191       3.15274591      14.80879421       0.00001054       0.27919352      -0.10910425
Ti       1.97047269       1.97057450      12.32154803       0.00000566      -0.40923041      -0.13389431
Ti       1.97020076       1.18222079      16.28721487       0.00001954       0.10167119       0.12795789
O        0.00000902       1.97050521      12.43637429      -0.00005528       0.33563052       0.13357498
O        0.00018798       1.18228858      16.40349823      -0.00005142       0.04285978       0.23152964
O        1.97049401       3.94093312      12.30382501       0.00003111      -1.16154933      -0.05153853
O        1.97057142       3.15276434      16.39070002       0.00016506      -0.00516637       0.23360709
O        1.97043419       1.97038596      10.47986544       0.00009436      -0.25190229      -0.31336477
O        1.97054157       1.18223686      14.47604057      -0.00011827       1.06617375       0.05007918
10
Lattice="3.940949890606662 0.0 0.0 0.0 3.940949890606662 0.0 0.0 0.0 26.940967945119528" Properties=species:S:1:pos:R:3:forces:R:3 tau=tau08 tau_p=0 tau_q=8 stage=B constraint=xy_fixed_z_free force_label=raw_dft energy=-15500.005419910904 free_energy=-15500.005419910904 stress="0.004213425296150284 -0.0 -9.181576151994517e-07 -0.0 0.005563116990493478 -0.00945885975178475 -9.181576151994517e-07 -0.00945885975178475 -0.006666742443963218" pbc="T T T"
Sr       0.00003612       0.00009431      10.76440121      -0.00010336       0.00250091      -0.19914351
Sr       3.94085191       3.15274591      14.81907748       0.00001157       0.26137603      -0.16408035
Ti       1.97047269       1.97057450      12.31333303       0.00000746      -0.41000585      -0.11252870
Ti       1.97020076       1.18222079      16.29074152       0.00003677       0.10029925       0.14014492
O        0.00000902       1.97050521      12.43872425      -0.00005219       0.34040043       0.09806984
O        0.00018798       1.18228858      16.41023355      -0.00005734       0.04195140       0.22192914
O        1.97049401       3.94093312      12.29093578       0.00003265      -1.11823859       0.00418678
O        1.97057142       3.15276434      16.39750455       0.00015684      -0.00564794       0.22326097
O        1.97043419       1.97038596      10.47090798       0.00009385      -0.24535009      -0.25904867
O        1.97054157       1.18223686      14.47946060      -0.00012624       1.03271444       0.04720957
10
Lattice="3.940949890606662 0.0 0.0 0.0 3.940949890606662 0.0 0.0 0.0 26.940967945119528" Properties=species:S:1:pos:R:3:forces:R:3 tau=tau08 tau_p=0 tau_q=8 stage=B constraint=xy_fixed_z_free force_label=raw_dft energy=-15500.015573294564 free_energy=-15500.015573294564 stress="0.004697294359360395 -0.0 -9.181576151994517e-07 -0.0 0.005874372422046092 -0.009207284565220101 -9.181576151994517e-07 -0.009207284565220101 -0.005576889354721469" pbc="T T T"
Sr       0.00003612       0.00009431      10.75679806      -0.00010490       0.00252508      -0.21360185
Sr       3.94085191       3.15274591      14.82723173       0.00000103       0.24592705      -0.17134577
Ti       1.97047269       1.97057450      12.30218199       0.00000926      -0.41481870      -0.07397347
Ti       1.97020076       1.18222079      16.29761706       0.00003728       0.09988967       0.14168193
O        0.00000902       1.97050521      12.44261382      -0.00004628       0.34335977       0.02141472
O        0.00018798       1.18228858      16.42185258      -0.00003934       0.04092708       0.18574832
O        1.97049401       3.94093312      12.27695105       0.00003420      -1.07368831       0.03526885
O        1.97057142       3.15276434      16.40921760       0.00016147      -0.00592074       0.18552515
O        1.97043419       1.97038596      10.45672984       0.00008742      -0.23650807      -0.16391297
O        1.97054157       1.18223686      14.48412623      -0.00014013       0.99830716       0.05319535
10
Lattice="3.940949890606662 0.0 0.0 0.0 3.940949890606662 0.0 0.0 0.0 26.940967945119528" Properties=species:S:1:pos:R:3:forces:R:3 tau=tau08 tau_p=0 tau_q=8 stage=B constraint=xy_fixed_z_free force_label=raw_dft energy=-15500.027408205693 free_energy=-15500.027408205693 stress="0.005742157725457371 -0.0 -9.181576151994517e-07 -0.0 0.006670415074424017 -0.008937346226351462 -9.181576151994517e-07 -0.008937346226351462 -0.0037635280647025523" pbc="T T T"
Sr       0.00003612       0.00009431      10.74181961      -0.00010619       0.00240964      -0.20247283
Sr       3.94085191       3.15274591      14.83392654      -0.00001800       0.23094934      -0.12438869
Ti       1.97047269       1.97057450      12.28649063       0.00000257      -0.42402556      -0.01372429
Ti       1.97020076       1.18222079      16.30991662      -0.00000180       0.10034450       0.12872254
O        0.00000902       1.97050521      12.44723072      -0.00003780       0.34466306      -0.09961328
O        0.00018798       1.18228858      16.44085858       0.00001286       0.03949523       0.11643318
O        1.97049401       3.94093312      12.25982126       0.00003394      -1.02131597       0.04402731
O        1.97057142       3.15276434      16.42832260       0.00018486      -0.00597602       0.11374869
O        1.97043419       1.97038596      10.43546262       0.00008485      -0.22421485      -0.03018527
O        1.97054157       1.18223686      14.49147078      -0.00015529       0.95767088       0.06745238
10
Lattice="3.940949890606662 0.0 0.0 0.0 3.940949890606662 0.0 0.0 0.0 26.940967945119528" Properties=species:S:1:pos:R:3:forces:R:3 tau=tau08 tau_p=0 tau_q=8 stage=B constraint=xy_fixed_z_free force_label=raw_dft energy=-15500.035172157737 free_energy=-15500.035172157737 stress="0.007252527002460469 -0.0 -9.181576151994517e-07 -0.0 0.00790533706686728 -0.008683934724556414 -9.181576151994517e-07 -0.008683934724556414 -0.0014965969127751061" pbc="T T T"
Sr       0.00003612       0.00009431      10.71905044      -0.00010207       0.00188230      -0.14843981
Sr       3.94085191       3.15274591      14.83773155      -0.00003780       0.21906339      -0.02600079
Ti       1.97047269       1.97057450      12.26900345      -0.00000334      -0.43626916       0.04619912
Ti       1.97020076       1.18222079      16.32752735      -0.00009719       0.10154546       0.09437877
O        0.00000902       1.97050521      12.44886926      -0.00002982       0.34378735      -0.22408398
O        0.00018798       1.18228858      16.46539951       0.00009976       0.03772528       0.02687523
O        1.97049401       3.94093312      12.24211552       0.00003240      -0.96795349       0.03102936
O        1.97057142       3.15276434      16.45287960       0.00022780      -0.00579167       0.02169008
O        1.97043419       1.97038596      10.41092074       0.00008099      -0.21044042       0.09786184
O        1.97054157       1.18223686      14.50182254      -0.00016995       0.91645121       0.08049018
10
Lattice="3.940949890606662 0.0 0.0 0.0 3.940949890606662 0.0 0.0 0.0 26.940967945119528" Properties=species:S:1:pos:R:3:forces:R:3 tau=tau08 tau_p=0 tau_q=8 stage=B constraint=xy_fixed_z_free force_label=raw_dft energy=-15500.037755606523 free_energy=-15500.037755606523 stress="0.007807094202040938 -0.0 -9.181576151994517e-07 -0.0 0.008428686907530967 -0.008626090794798848 -9.181576151994517e-07 -0.008626090794798848 -0.0007776795000739356" pbc="T T T"
Sr       0.00003612       0.00009431      10.70830274      -0.00010079       0.00140434      -0.10047254
Sr       3.94085191       3.15274591      14.83748979      -0.00004654       0.21705227       0.01905110
Ti       1.97047269       1.97057450      12.26463125      -0.00000026      -0.44183354       0.04425177
Ti       1.97020076       1.18222079      16.33533344      -0.00013318       0.10234353       0.06825302
O        0.00000902       1.97050521      12.44461758      -0.00003060       0.34261929      -0.22959720
O        0.00018798       1.18228858      16.47407668       0.00012778       0.03679223       0.00151001
O        1.97049401       3.94093312      12.23777979       0.00003060      -0.95281201       0.02461960
O        1.97057142       3.15276434      16.46144526       0.00024374      -0.00561503      -0.00374635
O        1.97043419       1.97038596      10.40471954       0.00008150      -0.20624567       0.10400652
O        1.97054157       1.18223686      14.50692388      -0.00017252       0.90629458       0.07212459
10
Lattice="3.940949890606662 0.0 0.0 0.0 3.940949890606662 0.0 0.0 0.0 26.940967945119528" Properties=species:S:1:pos:R:3:forces:R:3 tau=tau08 tau_p=0 tau_q=8 stage=B constraint=xy_fixed_z_free force_label=raw_dft energy=-15500.040695932606 free_energy=-15500.040695932606 stress="0.00827168195533186 -0.0 -9.181576151994517e-07 -0.0 0.008932755438275465 -0.008569165022656483 -9.181576151994517e-07 -0.008569165022656483 -0.0002130125667262728" pbc="T T T"
Sr       0.00003612       0.00009431      10.69648028      -0.00009822       0.00080038      -0.03651789
Sr       3.94085191       3.15274591      14.83752161      -0.00005142       0.21479999       0.05569549
Ti       1.97047269       1.97057450      12.26170115      -0.00000797      -0.44708167       0.02122754
Ti       1.97020076       1.18222079      16.34382342      -0.00016532       0.10301613       0.03416430
O        0.00000902       1.97050521      12.43559539      -0.00003188       0.34140059      -0.19417305
O        0.00018798       1.18228858      16.48198218       0.00015041       0.03552288      -0.01270305
O        1.97049401       3.94093312      12.23471627       0.00002982      -0.93892471       0.02486437
O        1.97057142       3.15276434      16.46912727       0.00025788      -0.00544328      -0.01703382
O        1.97043419       1.97038596      10.40118221       0.00008587      -0.20250600       0.07149132
O        1.97054157       1.18223686      14.51319019      -0.00016918       0.89841569       0.05298478
10
Lattice="3.940949890606662 0.0 0.0 0.0 3.940949890606662 0.0 0.0 0.0 26.940967945119528" Properties=species:S:1:pos:R:3:forces:R:3 tau=tau08 tau_p=0 tau_q=8 stage=B constraint=xy_fixed_z_free force_label=raw_dft energy=-15500.043361695827 free_energy=-15500.043361695827 stress="0.008640781316642041 -0.0 -9.181576151994517e-07 -0.0 0.009444169229941561 -0.008462658739293345 -9.181576151994517e-07 -0.008462658739293345 0.00026351123556224264" pbc="T T T"
Sr       0.00003612       0.00009431      10.68134746      -0.00009642      -0.00000283       0.05163315
Sr       3.94085191       3.15274591      14.84005576      -0.00005322       0.20918444       0.07419921
Ti       1.97047269       1.97057450      12.25864191      -0.00000180      -0.45125277      -0.02699273
Ti       1.97020076       1.18222079      16.35501781      -0.00018435       0.10339383      -0.01305889
O        0.00000902       1.97050521      12.41786168      -0.00004037       0.33989290      -0.09870336
O        0.00018798       1.18228858      16.49100905       0.00015735       0.03342897      -0.01473628
O        1.97049401       3.94093312      12.23170401       0.00002725      -0.91997953       0.03849147
O        1.97057142       3.15276434      16.47773173       0.00027408      -0.00531704      -0.01641624
O        1.97043419       1.97038596      10.39923428       0.00008562      -0.19759725      -0.01045513
O        1.97054157       1.18223686      14.52271627      -0.00016841       0.88824904       0.01603906
10
Lattice="3.940949890606662 0.0 0.0 0.0 3.940949890606662 0.0 0.0 0.0 26.940967945119528" Properties=species:S:1:pos:R:3:forces:R:3 tau=tau08 tau_p=0 tau_q=8 stage=B constraint=xy_fixed_z_free force_label=raw_dft energy=-15500.04400197969 free_energy=-15500.04400197969 stress="0.008509484777668518 -0.0 -9.181576151994517e-07 -0.0 0.009389997930644793 -0.008409405597611778 -9.181576151994517e-07 -0.008409405597611778 0.000170777316427098" pbc="T T T"
Sr       0.00003612       0.00009431      10.67997233      -0.00009565      -0.00008150       0.05952155
Sr       3.94085191       3.15274591      14.84297060      -0.00005245       0.20517403       0.05244022
Ti       1.97047269       1.97057450      12.25780910      -0.00000257      -0.44892721      -0.04085817
Ti       1.97020076       1.18222079      16.35660082      -0.00017021       0.10307964      -0.01591307
O        0.00000902       1.97050521      12.41109704      -0.00004345       0.33963090      -0.05454852
O        0.00018798       1.18228858      16.49172068       0.00014424       0.03275123      -0.00538338
O        1.97049401       3.94093312      12.23199277       0.00002725      -0.91587091       0.04576744
O        1.97057142       3.15276434      16.47830239       0.00027099      -0.00545562      -0.00555513
O        1.97043419       1.97038596      10.39977288       0.00008767      -0.19623096      -0.03870847
O        1.97054157       1.18223686      14.52508136      -0.00016584       0.88593067       0.00323728
10
Lattice="3.940949890606662 0.0 0.0 0.0 3.940949890606662 0.0 0.0 0.0 26.940967945119528" Properties=species:S:1:pos:R:3:forces:R:3 tau=tau08 tau_p=0 tau_q=8 stage=B constraint=xy_fixed_z_free force_label=raw_dft energy=-15500.044607296923 free_energy=-15500.044607296923 stress="0.00823862828118468 -0.0 -9.181576151994517e-07 -0.0 0.009212793510911298 -0.008331362200319825 -9.181576151994517e-07 -0.008331362200319825 -4.590788075997259e-06" pbc="T T T"
Sr       0.00003612       0.00009431      10.68116655      -0.00009667      -0.00000900       0.04587928
Sr       3.94085191       3.15274591      14.84773145      -0.00004962       0.19879564       0.01275010
Ti       1.97047269       1.97057450      12.25581492      -0.00000154      -0.44309595      -0.04426643
Ti       1.97020076       1.18222079      16.35712531      -0.00014218       0.10260861      -0.00877338
O        0.00000902       1.97050521      12.40365593      -0.00004628       0.33910511      -0.00942592
O        0.00018798       1.18228858      16.49172610       0.00012033       0.03199224       0.00717826
O        1.97049401       3.94093312      12.23331295       0.00002700      -0.91286195       0.04689332
O        1.97057142       3.15276434      16.47819102       0.00026354      -0.00578113       0.00896338
O        1.97043419       1.97038596      10.39950303       0.00008973      -0.19420648      -0.05311102
O        1.97054157       1.18223686      14.52709271      -0.00016429       0.88345290      -0.00608760
10
Lattice="3.940949890606662 0.0 0.0 0.0 3.940949890606662 0.0 0.0 0.0 26.940967945119528" Properties=species:S:1:pos:R:3:forces:R:3 tau=tau08 tau_p=0 tau_q=8 stage=B constraint=xy_fixed_z_free force_label=raw_dft energy=-15500.044943221457 free_energy=-15500.044943221457 stress="0.008066932807142383 -0.0 -9.181576151994517e-07 -0.0 0.009100778281856965 -0.008266173009640663 -9.181576151994517e-07 -0.008266173009640663 -4.3153407914374227e-05" pbc="T T T"
Sr       0.00003612       0.00009431      10.68270425      -0.00009899       0.00012547       0.02515156
Sr       3.94085191       3.15274591      14.85137485      -0.00005091       0.19348040      -0.01301981
Ti       1.97047269       1.97057450      12.25287253       0.00000463      -0.43742307      -0.03288081
Ti       1.97020076       1.18222079      16.35761350      -0.00011878       0.10245589      -0.00019360
O        0.00000902       1.97050521      12.39876276      -0.00004911       0.33814532       0.00965578
O        0.00018798       1.18228858      16.49247448       0.00010464       0.03142659       0.01100921
O        1.97049401       3.94093312      12.23483737       0.00002571      -0.91157588       0.03497780
O        1.97057142       3.15276434      16.47891993       0.00025737      -0.00608580       0.01399477
O        1.97043419       1.97038596      10.39733033       0.00009025      -0.19190354      -0.04152254
O        1.97054157       1.18223686      14.52842996      -0.00016455       0.88135488      -0.00717286
10
Lattice="3.940949890606662 0.0 0.0 0.0 3.940949890606662 0.0 0.0 0.0 26.940967945119528" Properties=species:S:1:pos:R:3:forces:R:3 tau=tau08 tau_p=0 tau_q=8 stage=B constraint=xy_fixed_z_free force_label=raw_dft energy=-15500.045133565087 free_energy=-15500.045133565087 stress="0.008023779399228008 -0.0 -9.181576151994517e-07 -0.0 0.00909343302093537 -0.008225774074571889 -9.181576151994517e-07 -0.008225774074571889 5.2334984066368754e-05" pbc="T T T"
Sr       0.00003612       0.00009431      10.68357549      -0.00009847       0.00026302       0.00760944
Sr       3.94085191       3.15274591      14.85324336      -0.00005091       0.19002715      -0.01984892
Ti       1.97047269       1.97057450      12.24970306       0.00000283      -0.43322137      -0.01400506
Ti       1.97020076       1.18222079      16.35851840      -0.00011724       0.10265412       0.00443001
O        0.00000902       1.97050521      12.39585077      -0.00004808       0.33689910       0.00985787
O        0.00018798       1.18228858      16.49400536       0.00010104       0.03103322       0.00707079
O        1.97049401       3.94093312      12.23639122       0.00002597      -0.91176692       0.01442440
O        1.97057142       3.15276434      16.48051975       0.00025814      -0.00629303       0.01045719
O        1.97043419       1.97038596      10.39411333       0.00009127      -0.18967465      -0.01625709
O        1.97054157       1.18223686      14.52939923      -0.00016455       0.88007910      -0.00373838
