Sr Ti O
 1.0000000000000000
     3.9409498906066620    0.0000000000000000    0.0000000000000000
     0.0000000000000000    3.9409498906066620    0.0000000000000000
     0.0000000000000000    0.0000000000000000   26.9409679451195281
 Sr  Ti  O
   2   2   6
Cartesian
  0.0000361212000000  0.0000943054000000 10.7449774664000000
  3.9408519109000002  3.5468409014000000 14.7007544303000000
  1.9704726885999999  1.9705745045000000 12.3554933450999993
  1.9702007556000001  1.5763157799000000 16.2934666202000002
  0.0000090208000000  1.9705052130000000 12.4471276593999995
  0.0001879780000000  1.5763835751999999 16.4069100556999992
  1.9704940097000001  3.9409331233999998 12.3891612342999995
  1.9705714193999999  3.5468593309999998 16.4034438346000009
  1.9704341934000000  1.9703859550000000 10.4752288853000000
  1.9705415672000000  1.5763318512000000 14.4587564316999995
