10
Lattice="3.940949890606662 0.0 0.0 0.0 3.940949890606662 0.0 0.0 0.0 26.940967945119528" Properties=species:S:1:pos:R:3:forces:R:3 energy=-15500.494291606075 free_energy=-15500.494291606075 stress="0.009039261721638601 -0.0 -0.0 -0.0 0.009255946918825673 -0.007043187066194994 -0.0 -0.007043187066194994 -0.0008465413212138945" pbc="T T T"
Sr       0.00003626       0.00009419      10.75260867      -0.00006633       0.00271097       0.05809048
Sr       3.94085176       3.54684071      14.64522241      -0.00007688       0.30433865       0.34531458
Ti       1.97047258       1.97057465      12.38212169      -0.00000437      -0.24070873      -0.04292534
Ti       1.97020066       1.57631572      16.28444791      -0.00086055       0.04936595      -0.00063995
O        0.00000906       1.97050529      12.45001441      -0.00002931       0.22451953      -0.04062780
O        0.00018798       1.57638350      16.39256827       0.00058390       0.02832970      -0.02665051
O        1.97049386       3.94093294      12.44909065       0.00000874      -0.98412059      -0.29442602
O        1.97057150       3.54685924      16.37955485       0.00043195       0.01158359       0.00849621
O        1.97043435       1.97038588      10.49176941       0.00011261      -0.17890970       0.04002668
O        1.97054155       1.57633188      14.44792112      -0.00009976       0.78289037      -0.04665832
10
Lattice="3.940949890606662 0.0 0.0 0.0 3.940949890606662 0.0 0.0 0.0 26.940967945119528" Properties=species:S:1:pos:R:3:forces:R:3 energy=-15500.498327326417 free_energy=-15500.498327326417 stress="0.008880420454209096 -0.0 -9.181576151994517e-07 -0.0 0.009088842232859372 -0.006946780516599052 -9.181576151994517e-07 -0.006946780516599052 -0.0008667407887482824" pbc="T T T"
Sr       0.00003612       0.00009431      10.75380432      -0.00006762       0.00266675       0.04545093
Sr       3.94085191       3.54684090      14.65232986      -0.00008022       0.29525880       0.27659388
Ti       1.97047269       1.97057450      12.38123848      -0.00001414      -0.23508548      -0.07791085
Ti       1.97020076       1.57631578      16.28443475      -0.00083561       0.04919009      -0.03918156
O        0.00000902       1.97050521      12.44917827      -0.00002468       0.22882818      -0.01620001
O        0.00018798       1.57638358      16.39201982       0.00057541       0.02817389      -0.01104649
O        1.97049401       3.94093312      12.44303085       0.00001080      -0.97123859      -0.24706604
O        1.97057142       3.54685933      16.37972967       0.00042243       0.01127172       0.02161886
O        1.97043419       1.97038596      10.49259321       0.00011287      -0.17930668       0.02233234
O        1.97054157       1.57633185      14.44696074      -0.00009924       0.77024131       0.02540893
10
Lattice="3.940949890606662 0.0 0.0 0.0 3.940949890606662 0.0 0.0 0.0 26.940967945119528" Properties=species:S:1:pos:R:3:forces:R:3 energy=-15500.502080592592 free_energy=-15500.502080592592 stress="0.008640781316642041 -0.0 -0.0 -0.0 0.008837267046294723 -0.006839356075620716 -0.0 -0.006839356075620716 -0.0010659809912465636" pbc="T T T"
Sr       0.00003612       0.00009431      10.75509498      -0.00007688       0.00262690       0.03364957
Sr       3.94085191       3.54684090      14.66014775      -0.00007585       0.28526184       0.21674657
Ti       1.97047269       1.97057450      12.37927826       0.00000051      -0.23092132      -0.08517345
Ti       1.97020076       1.57631578      16.28354219      -0.00078264       0.04881908      -0.02838549
O        0.00000902       1.97050521      12.44862955      -0.00003214       0.23236268       0.00088780
O        0.00018798       1.57638358      16.39165034       0.00054019       0.02804662      -0.00144856
O        1.97049401       3.94093312      12.43610999       0.00001337      -0.95433024      -0.19983179
O        1.97057142       3.54685933      16.38025840       0.00040983       0.01084029       0.02780777
O        1.97043419       1.97038596      10.49327850       0.00011081      -0.17906448      -0.00484267
O        1.97054157       1.57633185      14.44733000      -0.00010722       0.75635839       0.04059052
10
Lattice="3.940949890606662 0.0 0.0 0.0 3.940949890606662 0.0 0.0 0.0 26.940967945119528" Properties=species:S:1:pos:R:3:forces:R:3 energy=-15500.50634965055 free_energy=-15500.50634965055 stress="0.008310244575170237 -0.0 -0.0 -0.0 0.00848836715251893 -0.006679596650576012 -0.0 -0.006679596650576012 -0.0013285740691936067" pbc="T T T"
Sr       0.00003612       0.00009431      10.75696063      -0.00007970       0.00259681       0.01454242
Sr       3.94085191       3.54684090      14.67187457      -0.00007559       0.27055461       0.13394188
Ti       1.97047269       1.97057450      12.37555514       0.00000566      -0.22616606      -0.07951445
Ti       1.97020076       1.57631578      16.28239151      -0.00072814       0.04829920      -0.00409705
O        0.00000902       1.97050521      12.44826880      -0.00003008       0.23687471       0.01787482
O        0.00018798       1.57638358      16.39133718       0.00049699       0.02784736       0.01242434
O        1.97049401       3.94093312      12.42552673       0.00001543      -0.92803943      -0.13384623
O        1.97057142       3.54685933      16.38141678       0.00039286       0.01014274       0.03592114
O        1.97043419       1.97038596      10.49350073       0.00010901      -0.17815868      -0.04106875
O        1.97054157       1.57633185      14.44848790      -0.00010644       0.73604873       0.04382188
10
Lattice="3.940949890606662 0.0 0.0 0.0 3.940949890606662 0.0 0.0 0.0 26.940967945119528" Properties=species:S:1:pos:R:3:forces:R:3 energy=-15500.509811754919 free_energy=-15500.509811754919 stress="0.007839229718572918 -0.0 -0.0 -0.0 0.007992562040311227 -0.006444548301084952 -0.0 -0.006444548301084952 -0.0016150392451358354" pbc="T T T"
Sr       0.00003612       0.00009431      10.75948422      -0.00008253       0.00261507      -0.01932595
Sr       3.94085191       3.54684090      14.68946481      -0.00007790       0.24909207       0.01674945
Ti       1.97047269       1.97057450      12.36895841       0.00000514      -0.22100843      -0.05713943
Ti       1.97020076       1.57631578      16.28138598      -0.00063609       0.04763483       0.03041332
O        0.00000902       1.97050521      12.44842180      -0.00003085       0.24273348       0.03095428
O        0.00018798       1.57638358      16.39141881       0.00043349       0.02753472       0.03395913
O        1.97049401       3.94093312      12.40923487       0.00002108      -0.88812717      -0.04071265
O        1.97057142       3.54685933      16.38392656       0.00036587       0.00908422       0.04752993
O        1.97043419       1.97038596      10.49220463       0.00010901      -0.17603418      -0.07992994
O        1.97054157       1.57633185      14.45081989      -0.00010722       0.70647564       0.03750160
10
Lattice="3.940949890606662 0.0 0.0 0.0 3.940949890606662 0.0 0.0 0.0 26.940967945119528" Properties=species:S:1:pos:R:3:forces:R:3 energy=-15500.5105359859 free_energy=-15500.5105359859 stress="0.007689570027295408 -0.0 -0.0 -0.0 0.007830966300036124 -0.006342632805797812 -0.0 -0.006342632805797812 -0.0015764766252974586" pbc="T T T"
Sr       0.00003612       0.00009431      10.76001608      -0.00008330       0.00263538      -0.03787235
Sr       3.94085191       3.54684090      14.69717253      -0.00007559       0.23971269      -0.02803145
Ti       1.97047269       1.97057450      12.36505187       0.00000463      -0.22057957      -0.03920547
Ti       1.97020076       1.57631578      16.28188698      -0.00060395       0.04758958       0.03936667
O        0.00000902       1.97050521      12.44913703      -0.00002957       0.24482379       0.02516930
O        0.00018798       1.57638358      16.39227308       0.00040803       0.02737196       0.04272428
O        1.97049401       3.94093312      12.40150738       0.00002314      -0.86949541      -0.00460922
O        1.97057142       3.54685933      16.38609970       0.00035713       0.00857489       0.05061757
O        1.97043419       1.97038596      10.48976391       0.00010593      -0.17432388      -0.07661168
O        1.97054157       1.57633185      14.45241142      -0.00010670       0.69369057       0.02845234
10
Lattice="3.940949890606662 0.0 0.0 0.0 3.940949890606662 0.0 0.0 0.0 26.940967945119528" Properties=species:S:1:pos:R:3:forces:R:3 energy=-15500.511041709471 free_energy=-15500.511041709471 stress="0.007701506076293001 -0.0 -0.0 -0.0 0.007836475245727321 -0.0062921341369618425 -0.0 -0.0062921341369618425 -0.0013487735367279945" pbc="T T T"
Sr       0.00003612       0.00009431      10.75927911      -0.00008408       0.00264207      -0.04795082
Sr       3.94085191       3.54684090      14.70090293      -0.00007688       0.23486410      -0.04150917
Ti       1.97047269       1.97057450      12.36194838       0.00000617      -0.22244927      -0.02107328
Ti       1.97020076       1.57631578      16.28331708      -0.00059624       0.04784926       0.03706862
O        0.00000902       1.97050521      12.45009847      -0.00002777       0.24550513       0.00967789
O        0.00018798       1.57638358      16.39388433       0.00040186       0.02724829       0.04413401
O        1.97049401       3.94093312      12.39693018       0.00002365      -0.85856899       0.00797428
O        1.97057142       3.54685933      16.38866113       0.00035430       0.00826455       0.04784797
O        1.97043419       1.97038596      10.48644618       0.00010542      -0.17261795      -0.05393994
O        1.97054157       1.57633185      14.45385216      -0.00010619       0.68726307       0.01777044
10
Lattice="3.940949890606662 0.0 0.0 0.0 3.940949890606662 0.0 0.0 0.0 26.940967945119528" Properties=species:S:1:pos:R:3:forces:R:3 energy=-15500.511647434876 free_energy=-15500.511647434876 stress="0.00785392024041611 -0.0 -0.0 -0.0 0.007983380464159232 -0.006259080462814663 -0.0 -0.006259080462814663 -0.0008878584138978698" pbc="T T T"
Sr       0.00003612       0.00009431      10.75692835      -0.00008485       0.00261353      -0.05233506
Sr       3.94085191       3.54684090      14.70308780      -0.00008073       0.23145379      -0.03645979
Ti       1.97047269       1.97057450      12.35833802       0.00000309      -0.22663940       0.00240604
Ti       1.97020076       1.57631578      16.28605741      -0.00059213       0.04845141       0.02620777
O        0.00000902       1.97050521      12.45131438      -0.00002571       0.24554858      -0.01669314
O        0.00018798       1.57638358      16.39692951       0.00040443       0.02709274       0.03880772
O        1.97049401       3.94093312      12.39280349       0.00002340      -0.84895641       0.00896929
O        1.97057142       3.54685933      16.39274129       0.00035610       0.00796476       0.03798625
O        1.97043419       1.97038596      10.48141127       0.00010413      -0.17036644      -0.01338825
O        1.97054157       1.57633185      14.45570845      -0.00010747       0.68283769       0.00449917
10
Lattice="3.940949890606662 0.0 0.0 0.0 3.940949890606662 0.0 0.0 0.0 26.940967945119528" Properties=species:S:1:pos:R:3:forces:R:3 energy=-15500.512084585756 free_energy=-15500.512084585756 stress="0.00812018594882395 -0.0 -0.0 -0.0 0.008250564330182272 -0.006255407832353865 -0.0 -0.006255407832353865 -0.00032594595339580535" pbc="T T T"
Sr       0.00003612       0.00009431      10.75298449      -0.00008356       0.00252174      -0.04428674
Sr       3.94085191       3.54684090      14.70287695      -0.00008382       0.23066703      -0.01325327
Ti       1.97047269       1.97057450      12.35550331       0.00000334      -0.23196596       0.02065521
Ti       1.97020076       1.57631578      16.28946548      -0.00061629       0.04918520       0.01129049
O        0.00000902       1.97050521      12.45188388      -0.00002340       0.24502279      -0.04192904
O        0.00018798       1.57638358      16.40092911       0.00042063       0.02691277       0.02569072
O        1.97049401       3.94093312      12.39029869       0.00002340      -0.84355581      -0.00042423
O        1.97057142       3.54685933      16.39751534       0.00036433       0.00777450       0.02154790
O        1.97043419       1.97038596      10.47643018       0.00010439      -0.16835352       0.02634378
O        1.97054157       1.57633185      14.45743253      -0.00010901       0.68179151      -0.00563483
10
Lattice="3.940949890606662 0.0 0.0 0.0 3.940949890606662 0.0 0.0 0.0 26.940967945119528" Properties=species:S:1:pos:R:3:forces:R:3 energy=-15500.512274249102 free_energy=-15500.512274249102 stress="0.008286372477175051 -0.0 -9.181576151994517e-07 -0.0 0.00842317796183977 -0.006268262038966656 -9.181576151994517e-07 -0.006268262038966656 -6.610734829436053e-05" pbc="T T T"
Sr       0.00003612       0.00009431      10.75013504      -0.00008305       0.00241555      -0.03042566
Sr       3.94085191       3.54684090      14.70164912      -0.00008562       0.23162451       0.00374661
Ti       1.97047269       1.97057450      12.35503049       0.00000206      -0.23455531       0.02036108
Ti       1.97020076       1.57631578      16.29120586      -0.00062915       0.04951482       0.00450149
O        0.00000902       1.97050521      12.45112903      -0.00002417       0.24471503      -0.04542676
O        0.00018798       1.57638358      16.40325230       0.00043400       0.02678344       0.01507232
O        1.97049401       3.94093312      12.38997890       0.00002288      -0.84336169      -0.00621950
O        1.97057142       3.54685933      16.39996008       0.00036947       0.00774416       0.01051864
O        1.97043419       1.97038596      10.47495456       0.00010413      -0.16783776       0.03324873
O        1.97054157       1.57633185      14.45802458      -0.00011081       0.68295699      -0.00537721
10
Lattice="3.940949890606662 0.0 0.0 0.0 3.940949890606662 0.0 0.0 0.0 26.940967945119528" Properties=species:S:1:pos:R:3:forces:R:3 energy=-15500.512446361106 free_energy=-15500.512446361106 stress="0.008445213744604557 -0.0 -9.181576151994517e-07 -0.0 0.008593955278266868 -0.00627927993034905 -9.181576151994517e-07 -0.00627927993034905 0.0001349691694343194" pbc="T T T"
Sr       0.00003612       0.00009431      10.74670291      -0.00008253       0.00225820      -0.00937836
Sr       3.94085191       3.54684090      14.70048750      -0.00008767       0.23259870       0.01719708
Ti       1.97047269       1.97057450      12.35523007       0.00000154      -0.23655512       0.00980027
Ti       1.97020076       1.57631578      16.29283456      -0.00064226       0.04976267       0.00017201
O        0.00000902       1.97050521      12.44908001      -0.00002545       0.24473894      -0.03614534
O        0.00018798       1.57638358      16.40574769       0.00044840       0.02658032       0.00282359
O        1.97049401       3.94093312      12.38971459       0.00002237      -0.84351724      -0.00644550
O        1.97057142       3.54685933      16.40239317       0.00037487       0.00772154      -0.00125650
O        1.97043419       1.97038596      10.47464823       0.00010490      -0.16774468       0.02301934
O        1.97054157       1.57633185      14.45848124      -0.00011390       0.68415667       0.00021392
10
Lattice="3.940949890606662 0.0 0.0 0.0 3.940949890606662 0.0 0.0 0.0 26.940967945119528" Properties=species:S:1:pos:R:3:forces:R:3 energy=-15500.512522689038 free_energy=-15500.512522689038 stress="0.008483776364442933 -0.0 -9.181576151994517e-07 -0.0 0.008642617631872438 -0.006274689142273053 -9.181576151994517e-07 -0.006274689142273053 0.0001671046859663002" pbc="T T T"
Sr       0.00003612       0.00009431      10.74497747      -0.00008202       0.00215458       0.00256210
Sr       3.94085191       3.54684090      14.70075443      -0.00008793       0.23219684       0.01613264
Ti       1.97047269       1.97057450      12.35549335       0.00000051      -0.23681686      -0.00129326
Ti       1.97020076       1.57631578      16.29346662      -0.00064355       0.04978067       0.00062478
O        0.00000902       1.97050521      12.44712766      -0.00002725       0.24513283      -0.02202741
O        0.00018798       1.57638358      16.40691006       0.00045226       0.02641860      -0.00196304
O        1.97049401       3.94093312      12.38916123       0.00002211      -0.84249574       0.00011493
O        1.97057142       3.54685933      16.40344383       0.00037564       0.00767911      -0.00542220
O        1.97043419       1.97038596      10.47522889       0.00010490      -0.16783879       0.00609917
O        1.97054157       1.57633185      14.45875643      -0.00011493       0.68378900       0.00517280
