10
Lattice="3.940949890606662 0.0 0.0 0.0 3.940949890606662 0.0 0.0 0.0 26.940967945119528" Properties=species:S:1:pos:R:3:forces:R:3 tau=tau62 tau_p=6 tau_q=2 stage=A constraint=rigid_scf force_label=raw_dft energy=-15497.433244258817 free_energy=-15497.433244258817 stress="0.019364862262171635 -0.0013092927592744182 -0.009322054267120032 -0.0013092927592744182 0.0072093735945460945 0.0032631321644188515 -0.009322054267120032 0.0032631321644188515 -0.023368029464441244" pbc="T T T"
Sr       0.00003626       0.00009419      10.75260867      -0.00895001      -0.01053535       0.47786112
Sr       2.36447180       0.78817579      14.64522241       0.75384513      -1.19268976       4.46597174
Ti       1.97047258       1.97057465      12.38212169      -0.55564599       1.46943199      -3.53900446
Ti       0.39382070       2.75860069      16.28444791       0.09017579       0.02260257      -0.22660366
O        0.00000906       1.97050529      12.45001441      -1.06639152      -1.12460926      -2.06400191
O        2.36475792       2.75866847      16.39256827      -0.01552998       0.13740412      -0.23523563
O        1.97049386       3.94093294      12.44909065       0.13898252       0.16005014      -0.88440215
O        0.39419154       0.78819431      16.37955485       0.00159948       0.01546570      -0.04363959
O        1.97043435       1.97038588      10.49176941      -0.14665650       0.10101222       0.38187644
O        0.39416159       2.75861684      14.44792112       0.80857158       0.42186712       1.66717785
