10
Lattice="3.940949890606662 0.0 0.0 0.0 3.940949890606662 0.0 0.0 0.0 26.940967945119528" Properties=species:S:1:pos:R:3:forces:R:3 tau=tau75 tau_p=7 tau_q=5 stage=A constraint=rigid_scf force_label=raw_dft energy=-15496.818988493296 free_energy=-15496.818988493296 stress="0.010433943139126569 0.0 -0.005067311878285774 0.0 0.020210485425770332 2.7544728455983548e-06 -0.005067311878285774 2.7544728455983548e-06 -0.024002476376544065" pbc="T T T"
Sr       0.00003626       0.00009419      10.75260867       0.01231944      -0.00004602       0.63163443
Sr       2.75856679       1.97046076      14.64522241       1.64542709      -0.00029439       5.50333242
Ti       1.97047258       1.97057465      12.38212169      -1.68243863       0.00049545      -5.62984818
Ti       0.78791569       3.94088565      16.28444791      -0.05209518       0.00007430      -0.66379867
O        0.00000906       1.97050529      12.45001441      -0.26563301      -0.00023577      -0.50795588
O        2.75885291       0.00000355      16.39256827      -0.01973913       0.00003522      -0.10219775
O        1.97049386       3.94093294      12.44909065       1.02519113      -0.00029799      -1.09752526
O        0.78828653       1.97047928      16.37955485      -0.14209716      -0.00009462      -0.14822590
O        1.97043435       1.97038588      10.49176941      -0.07460210       0.00029671       0.44625686
O        0.78825658       3.94090181      14.44792112      -0.44633271       0.00006736       1.56832793
