10
Lattice="3.940949890606662 0.0 0.0 0.0 3.940949890606662 0.0 0.0 0.0 26.940967945119528" Properties=species:S:1:pos:R:3:forces:R:3 tau=tau96 tau_p=9 tau_q=6 stage=A constraint=rigid_scf force_label=raw_dft energy=-15497.559107929803 free_energy=-15497.559107929803 stress="0.005597088822255857 0.0009548839198074298 -0.0005720121942692583 0.0009548839198074298 0.01952462168721634 -0.01199113845450484 -0.0005720121942692583 -0.01199113845450484 -0.0291414045488154" pbc="T T T"
Sr       0.00003626       0.00009419      10.75260867       0.00711013      -0.00676149       0.34284838
Sr       3.54675677       2.36455575      14.64522241       0.58179539       0.68037329       4.49270350
Ti       1.97047258       1.97057465      12.38212169      -0.89402348      -0.39744138      -2.60078038
Ti       1.57610567       0.39403075      16.28444791      -0.02734445       0.13091132       0.14088231
O        0.00000906       1.97050529      12.45001441       0.04364268      -0.10546639      -1.30089567
O        3.54704288       0.39409854      16.39256827      -0.00147530       0.03519969      -0.08571621
O        1.97049386       3.94093294      12.44909065       0.81740769      -1.40794792      -3.14332480
O        1.57647651       2.36457427      16.37955485      -0.08769210      -0.01571664      -0.24667189
O        1.97043435       1.97038588      10.49176941      -0.06275420      -0.18562362       0.31360594
O        1.57644656       0.39404691      14.44792112      -0.37666636       1.27247315       2.08734830
