10
Lattice="3.940949890606662 0.0 0.0 0.0 3.940949890606662 0.0 0.0 0.0 26.940967945119528" Properties=species:S:1:pos:R:3:forces:R:3 tau=tau65 tau_p=6 tau_q=5 stage=B constraint=xy_fixed_z_free force_label=raw_dft energy=-15499.169866341586 free_energy=-15499.169866341586 stress="0.010249393458471479 -0.0 -0.0010907712468569487 -0.0 0.010288874235925055 1.8363152303989035e-06 -0.0010907712468569487 1.8363152303989035e-06 -0.002697547073455989" pbc="T T T"
Sr       0.00003626       0.00009419      10.31297443      -0.00026945      -0.00007945       0.03636517
Sr       2.36447180       1.97046076      15.33873462       0.10995760      -0.00013627       0.01298664
Ti       1.97047258       1.97057465      11.74832946      -0.08502895      -0.00014141      -0.07499651
Ti       0.39382070       3.94088565      16.76735063       0.00330721       0.00013524       0.04214784
O        0.00000906       1.97050529      11.91044359      -0.09847479      -0.00015915      -0.09815572
O        2.36475792       0.00000355      16.90187850      -0.00279530      -0.00001286       0.09163052
O        1.97049386       3.94093294      11.89513576       0.06358235       0.00001080      -0.08535703
O        0.39419154       1.97047928      16.90275733      -0.00840185      -0.00008433       0.08419412
O        1.97043435       1.97038588       9.93628307      -0.01062123       0.00040161      -0.03203723
O        0.39416159       3.94090181      14.96143202       0.02874416       0.00006582       0.02322246
10
Lattice="3.940949890606662 0.0 0.0 0.0 3.940949890606662 0.0 0.0 0.0 26.940967945119528" Properties=species:S:1:pos:R:3:forces:R:3 tau=tau65 tau_p=6 tau_q=5 stage=B constraint=xy_fixed_z_free force_label=raw_dft energy=-15499.170706629122 free_energy=-15499.170706629122 stress="0.010206240050557105 -0.0 -0.0010880167740113503 -0.0 0.010250311616086678 1.8363152303989035e-06 -0.0010880167740113503 1.8363152303989035e-06 -0.002735191535679167" pbc="T T T"
Sr       0.00003612       0.00009431      10.31372288      -0.00021392      -0.00006608       0.02142706
Sr       2.36447194       1.97046093      15.33900184       0.10957913      -0.00012958       0.01891252
Ti       1.97047269       1.97057450      11.74678590      -0.08479113      -0.00014732      -0.06605910
Ti       0.39382079       3.94088573      16.76821807       0.00327533       0.00012650       0.04722345
O        0.00000902       1.97050521      11.90842363      -0.09818040      -0.00015272      -0.08882030
O        2.36475793       0.00000361      16.90376439      -0.00276754      -0.00001183       0.08167263
O        1.97049401       3.94093312      11.89337895       0.06342860       0.00001157      -0.07673663
O        0.39419145       1.97047936      16.90449027      -0.00837357      -0.00008973       0.07489238
O        1.97043419       1.97038596       9.93562376      -0.01063640       0.00037718      -0.04073784
O        0.39416160       3.94090180      14.96191027       0.02868014       0.00008228       0.02822557
10
Lattice="3.940949890606662 0.0 0.0 0.0 3.940949890606662 0.0 0.0 0.0 26.940967945119528" Properties=species:S:1:pos:R:3:forces:R:3 tau=tau65 tau_p=6 tau_q=5 stage=B constraint=xy_fixed_z_free force_label=raw_dft energy=-15499.171560114177 free_energy=-15499.171560114177 stress="0.010168595588333927 -0.0 -0.0010852623011657519 -0.0 0.0102163397843243 1.8363152303989035e-06 -0.0010852623011657519 1.8363152303989035e-06 -0.0027407004813703633" pbc="T T T"
Sr       0.00003612       0.00009431      10.31433947      -0.00017766      -0.00007790       0.00421378
Sr       2.36447194       1.97046093      15.33942481       0.10912945      -0.00013267       0.02592495
Ti       1.97047269       1.97057450      11.74512048      -0.08450213      -0.00013961      -0.06032425
Ti       0.39382079       3.94088573      16.76933588       0.00324679       0.00013678       0.05092815
O        0.00000902       1.97050521      11.90620140      -0.09783073      -0.00015349      -0.07905268
O        2.36475793       0.00000361      16.90581651      -0.00274748      -0.00001028       0.07185616
O        1.97049401       3.94093312      11.89145552       0.06322857       0.00000309      -0.06778868
O        0.39419145       1.97047936      16.90637311      -0.00832472      -0.00009256       0.06590123
O        1.97043419       1.97038596       9.93468689      -0.01061994       0.00038644      -0.04606954
O        0.39416160       3.94090180      14.96256589       0.02859787       0.00008022       0.03441087
10
Lattice="3.940949890606662 0.0 0.0 0.0 3.940949890606662 0.0 0.0 0.0 26.940967945119528" Properties=species:S:1:pos:R:3:forces:R:3 tau=tau65 tau_p=6 tau_q=5 stage=B constraint=xy_fixed_z_free force_label=raw_dft energy=-15499.172747755027 free_energy=-15499.172747755027 stress="0.010111669816191562 -0.0 -0.0010806715130897548 -0.0 0.010165841115488329 1.8363152303989035e-06 -0.0010806715130897548 1.8363152303989035e-06 -0.0027434549542159617" pbc="T T T"
Sr       0.00003612       0.00009431      10.31484740      -0.00012701      -0.00007970      -0.01949102
Sr       2.36447194       1.97046093      15.34031405       0.10841082      -0.00013087       0.03443864
Ti       1.97047269       1.97057450      11.74257115      -0.08405065      -0.00014450      -0.05480923
Ti       0.39382079       3.94088573      16.77125618       0.00320642       0.00013498       0.05334808
O        0.00000902       1.97050521      11.90286805      -0.09727666      -0.00015041      -0.06555439
O        2.36475793       0.00000361      16.90887292      -0.00271894      -0.00001028       0.05990310
O        1.97049401       3.94093312      11.88858437       0.06290847       0.00000771      -0.05568881
O        0.39419145       1.97047936      16.90917815      -0.00824373      -0.00009025       0.05506557
O        1.97043419       1.97038596       9.93301778      -0.01058960       0.00038335      -0.05053220
O        0.39416160       3.94090180      14.96380992       0.02848088       0.00008022       0.04331975
10
Lattice="3.940949890606662 0.0 0.0 0.0 3.940949890606662 0.0 0.0 0.0 26.940967945119528" Properties=species:S:1:pos:R:3:forces:R:3 tau=tau65 tau_p=6 tau_q=5 stage=B constraint=xy_fixed_z_free force_label=raw_dft energy=-15499.174369417446 free_energy=-15499.174369417446 stress="0.010034544576514808 -0.0 -0.001073326252168159 -0.0 0.01009789745196357 1.8363152303989035e-06 -0.001073326252168159 1.8363152303989035e-06 -0.002744373111831161" pbc="T T T"
Sr       0.00003612       0.00009431      10.31501645      -0.00004731      -0.00008150      -0.05142258
Sr       2.36447194       1.97046093      15.34197493       0.10727362      -0.00013215       0.04538897
Ti       1.97047269       1.97057450      11.73859969      -0.08326389      -0.00014964      -0.04564891
Ti       0.39382079       3.94088573      16.77440077       0.00306578       0.00013267       0.05603899
O        0.00000902       1.97050521      11.89786802      -0.09638063      -0.00014758      -0.04758341
O        2.36475793       0.00000361      16.91347676      -0.00266032      -0.00000977       0.04428108
O        1.97049401       3.94093312      11.88428933       0.06237625       0.00001003      -0.03991021
O        0.39419145       1.97047936      16.91340781      -0.00810823      -0.00008870       0.04112274
O        1.97043419       1.97038596       9.93022673      -0.01055824       0.00038695      -0.05639458
O        0.39416160       3.94090180      14.96605948       0.02830270       0.00007945       0.05412764
10
Lattice="3.940949890606662 0.0 0.0 0.0 3.940949890606662 0.0 0.0 0.0 26.940967945119528" Properties=species:S:1:pos:R:3:forces:R:3 tau=tau65 tau_p=6 tau_q=5 stage=B constraint=xy_fixed_z_free force_label=raw_dft energy=-15499.176506599535 free_energy=-15499.176506599535 stress="0.009933547238842868 -0.0 -0.001061390203170566 -0.0 0.010007918005674025 1.8363152303989035e-06 -0.001061390203170566 1.8363152303989035e-06 -0.002734273378063967" pbc="T T T"
Sr       0.00003612       0.00009431      10.31441493       0.00005528      -0.00008665      -0.09464694
Sr       2.36447194       1.97046093      15.34491876       0.10550316      -0.00013267       0.06023709
Ti       1.97047269       1.97057450      11.73249293      -0.08204493      -0.00014732      -0.03333590
Ti       0.39382079       3.94088573      16.77947631       0.00283181       0.00013061       0.05879599
O        0.00000902       1.97050521      11.89036797      -0.09496575      -0.00014270      -0.02336439
O        2.36475793       0.00000361      16.92041917      -0.00256930      -0.00001054       0.02403879
O        1.97049401       3.94093312      11.87785259       0.06151673       0.00001311      -0.01910792
O        0.39419145       1.97047936      16.91979929      -0.00789586      -0.00008587       0.02334330
O        1.97043419       1.97038596       9.92563348      -0.01046105       0.00038489      -0.06311827
O        0.39416160       3.94090180      14.96994453       0.02802965       0.00007739       0.06715850
10
Lattice="3.940949890606662 0.0 0.0 0.0 3.940949890606662 0.0 0.0 0.0 26.940967945119528" Properties=species:S:1:pos:R:3:forces:R:3 tau=tau65 tau_p=6 tau_q=5 stage=B constraint=xy_fixed_z_free force_label=raw_dft energy=-15499.179208689951 free_energy=-15499.179208689951 stress="0.009801332542254147 -0.0 -0.0010430270508665772 -0.0 0.009891311988543693 1.8363152303989035e-06 -0.0010430270508665772 1.8363152303989035e-06 -0.002705810491992784" pbc="T T T"
Sr       0.00003612       0.00009431      10.31220273       0.00016249      -0.00008896      -0.15159944
Sr       2.36447194       1.97046093      15.35002790       0.10278808      -0.00013164       0.07916864
Ti       1.97047269       1.97057450      11.72310442      -0.07987235      -0.00016224      -0.01561354
Ti       0.39382079       3.94088573      16.78760764       0.00231374       0.00012418       0.06076134
O        0.00000902       1.97050521      11.87911791      -0.09278237      -0.00013704       0.00886902
O        2.36475793       0.00000361      16.93091601      -0.00244178      -0.00000926      -0.00202140
O        1.97049401       3.94093312      11.86819059       0.06013425       0.00002057       0.00783981
O        0.39419145       1.97047936      16.92949236      -0.00758141      -0.00008176       0.00091737
O        1.97043419       1.97038596       9.91816272      -0.01031090       0.00038669      -0.07079070
O        0.39416160       3.94090180      14.97649769       0.02759051       0.00007919       0.08246865
10
Lattice="3.940949890606662 0.0 0.0 0.0 3.940949890606662 0.0 0.0 0.0 26.940967945119528" Properties=species:S:1:pos:R:3:forces:R:3 tau=tau65 tau_p=6 tau_q=5 stage=B constraint=xy_fixed_z_free force_label=raw_dft energy=-15499.182473647847 free_energy=-15499.182473647847 stress="0.009640654959594243 0.0 -0.0010136460071801946 0.0 0.009749915715802977 1.8363152303989035e-06 -0.0010136460071801946 1.8363152303989035e-06 -0.0026397031436984236" pbc="T T T"
Sr       0.00003612       0.00009431      10.30671902       0.00025994      -0.00009539      -0.22406727
Sr       2.36447194       1.97046093      15.35881917       0.09871571      -0.00012984       0.10328841
Ti       1.97047269       1.97057450      11.70869227      -0.07679679      -0.00017869       0.00658048
Ti       0.39382079       3.94088573      16.80060892       0.00170876       0.00012393       0.06257834
O        0.00000902       1.97050521      11.86224281      -0.08937360      -0.00012881       0.05044762
O        2.36475793       0.00000361      16.94683151      -0.00228545      -0.00000771      -0.03463559
O        1.97049401       3.94093312      11.85365892       0.05796115       0.00002777       0.04132637
O        0.39419145       1.97047936      16.94425312      -0.00708467      -0.00007713      -0.02664666
O        1.97043419       1.97038596       9.90603025      -0.01004890       0.00038798      -0.07836697
O        0.39416160       3.94090180      14.98746397       0.02694413       0.00007790       0.09949501
10
Lattice="3.940949890606662 0.0 0.0 0.0 3.940949890606662 0.0 0.0 0.0 26.940967945119528" Properties=species:S:1:pos:R:3:forces:R:3 tau=tau65 tau_p=6 tau_q=5 stage=B constraint=xy_fixed_z_free force_label=raw_dft energy=-15499.186422699928 free_energy=-15499.186422699928 stress="0.009468959485551945 0.0 -0.0009695744416506211 0.0 0.009600256024525466 1.8363152303989035e-06 -0.0009695744416506211 1.8363152303989035e-06 -0.002498306870957708" pbc="T T T"
Sr       0.00003612       0.00009431      10.29464459       0.00035147      -0.00010079      -0.30890288
Sr       2.36447194       1.97046093      15.37402141       0.09254403      -0.00012958       0.13138543
Ti       1.97047269       1.97057450      11.68645480      -0.07299953      -0.00019103       0.03542312
Ti       0.39382079       3.94088573      16.82153140       0.00204608       0.00011390       0.06165942
O        0.00000902       1.97050521      11.83693017      -0.08416018      -0.00011827       0.10001720
O        2.36475793       0.00000361      16.97104991      -0.00213762      -0.00000694      -0.07243749
O        1.97049401       3.94093312      11.83173940       0.05445699       0.00003780       0.07868296
O        0.39419145       1.97047936      16.96684567      -0.00640462      -0.00007019      -0.05768887
O        1.97043419       1.97038596       9.88625892      -0.00958739       0.00038695      -0.08458852
O        0.39416160       3.94090180      15.00584368       0.02589075       0.00007816       0.11644912
10
Lattice="3.940949890606662 0.0 0.0 0.0 3.940949890606662 0.0 0.0 0.0 26.940967945119528" Properties=species:S:1:pos:R:3:forces:R:3 tau=tau65 tau_p=6 tau_q=5 stage=B constraint=xy_fixed_z_free force_label=raw_dft energy=-15499.191752865803 free_energy=-15499.191752865803 stress="0.009366125832649607 0.0 -0.0009098941966626566 0.0 0.009519458154387915 1.8363152303989035e-06 -0.0009098941966626566 1.8363152303989035e-06 -0.002233877477780266" pbc="T T T"
Sr       0.00003612       0.00009431      10.27152901       0.00047951      -0.00010722      -0.38319079
Sr       2.36447194       1.97046093      15.39826203       0.08428050      -0.00012753       0.15620069
Ti       1.97047269       1.97057450      11.65511404      -0.06847182      -0.00020235       0.06500392
Ti       0.39382079       3.94088573      16.85245224       0.00329024       0.00010824       0.05869983
O        0.00000902       1.97050521      11.80236139      -0.07699168      -0.00010979       0.14458547
O        2.36475793       0.00000361      17.00476394      -0.00194041      -0.00000540      -0.10709776
O        1.97049401       3.94093312      11.80148598       0.04944077       0.00004448       0.10701523
O        0.39419145       1.97047936      16.99855427      -0.00570091      -0.00006479      -0.08428333
O        1.97043419       1.97038596       9.85663041      -0.00876489       0.00038669      -0.08267742
O        0.39416160       3.94090180      15.03416664       0.02437894       0.00007765       0.12574417
10
Lattice="3.940949890606662 0.0 0.0 0.0 3.940949890606662 0.0 0.0 0.0 26.940967945119528" Properties=species:S:1:pos:R:3:forces:R:3 tau=tau65 tau_p=6 tau_q=5 stage=B constraint=xy_fixed_z_free force_label=raw_dft energy=-15499.19879802914 free_energy=-15499.19879802914 stress="0.009400097664411987 -0.0 -0.0008447050059834956 -0.0 0.009569956823223884 9.181576151994517e-07 -0.0008447050059834956 9.181576151994517e-07 -0.0018767141654676793" pbc="T T T"
Sr       0.00003612       0.00009431      10.23859954       0.00034633      -0.00011030      -0.41435230
Sr       2.36447194       1.97046093      15.42888867       0.07551690      -0.00012701       0.17028365
Ti       1.97047269       1.97057450      11.61964467      -0.06182552      -0.00021134       0.08622606
Ti       0.39382079       3.94088573      16.88909574       0.00304727       0.00010233       0.04183236
O        0.00000902       1.97050521      11.76433573      -0.06938019      -0.00010439       0.16801748
O        2.36475793       0.00000361      17.04254627      -0.00174321      -0.00000694      -0.12519421
O        1.97049401       3.94093312      11.76768601       0.04410059       0.00004988       0.11449431
O        0.39419145       1.97047936      17.03443611      -0.00491081      -0.00006145      -0.09480712
O        1.97043419       1.97038596       9.82125880      -0.00779379       0.00039029      -0.07139439
O        0.39416160       3.94090180      15.06882843       0.02264242       0.00007919       0.12489416
10
Lattice="3.940949890606662 0.0 0.0 0.0 3.940949890606662 0.0 0.0 0.0 26.940967945119528" Properties=species:S:1:pos:R:3:forces:R:3 tau=tau65 tau_p=6 tau_q=5 stage=B constraint=xy_fixed_z_free force_label=raw_dft energy=-15499.21044463749 free_energy=-15499.21044463749 stress="0.009651672850976636 0.0 -0.0007492166140027525 0.0 0.009838058846862126 1.8363152303989035e-06 -0.0007492166140027525 1.8363152303989035e-06 -0.0013102109168896176" pbc="T T T"
Sr       0.00003612       0.00009431      10.18156105       0.00014192      -0.00010053      -0.38997207
Sr       2.36447194       1.97046093      15.47813303       0.06380501      -0.00013035       0.17531298
Ti       1.97047269       1.97057450      11.56779101      -0.05285288      -0.00020620       0.09212751
Ti       0.39382079       3.94088573      16.94451375       0.00242866       0.00009667       0.02041507
O        0.00000902       1.97050521      11.71000261      -0.05910349      -0.00010644       0.16649281
O        2.36475793       0.00000361      17.09746942      -0.00144727      -0.00000591      -0.12869631
O        1.97049401       3.94093312      11.71845226       0.03704137       0.00004602       0.09487448
O        0.39419145       1.97047936      17.08716926      -0.00377849      -0.00005939      -0.08996856
O        1.97043419       1.97038596       9.76720206      -0.00645578       0.00038489      -0.04421475
O        0.39416160       3.94090180      15.12302551       0.02022096       0.00008099       0.10362883
10
Lattice="3.940949890606662 0.0 0.0 0.0 3.940949890606662 0.0 0.0 0.0 26.940967945119528" Properties=species:S:1:pos:R:3:forces:R:3 tau=tau65 tau_p=6 tau_q=5 stage=B constraint=xy_fixed_z_free force_label=raw_dft energy=-15499.22477129504 free_energy=-15499.22477129504 stress="0.010154823224105936 0.0 -0.0006335287544876216 0.0 0.01036508131798661 1.8363152303989035e-06 -0.0006335287544876216 1.8363152303989035e-06 -0.0005949661346492447" pbc="T T T"
Sr       0.00003612       0.00009431      10.09600332      -0.00012907      -0.00010002      -0.28539374
Sr       2.36447194       1.97046093      15.54925248       0.05012648      -0.00011699       0.16551091
Ti       1.97047269       1.97057450      11.49841590      -0.04183288      -0.00019360       0.08259617
Ti       0.39382079       3.94088573      17.02041855       0.00202089       0.00010850      -0.01024199
O        0.00000902       1.97050521      11.63863016      -0.04718951      -0.00011416       0.12775966
O        2.36475793       0.00000361      17.17043921      -0.00126807      -0.00001003      -0.10851392
O        1.97049401       3.94093312      11.65227018       0.02895139       0.00003934       0.03986830
O        0.39419145       1.97047936      17.15807719      -0.00284827      -0.00008742      -0.06124985
O        1.97043419       1.97038596       9.69287241      -0.00513475       0.00039004      -0.00926883
O        0.39416160       3.94090180      15.19894056       0.01730352       0.00008459       0.05893354
10
Lattice="3.940949890606662 0.0 0.0 0.0 3.940949890606662 0.0 0.0 0.0 26.940967945119528" Properties=species:S:1:pos:R:3:forces:R:3 tau=tau65 tau_p=6 tau_q=5 stage=B constraint=xy_fixed_z_free force_label=raw_dft energy=-15499.235868913722 free_energy=-15499.235868913722 stress="0.010894858261956695 0.0 -0.0004994777426685017 0.0 0.011138170029984549 1.8363152303989035e-06 -0.0004994777426685017 1.8363152303989035e-06 0.00023688466472145852" pbc="T T T"
Sr       0.00003612       0.00009431       9.97564136      -0.00021340      -0.00007996      -0.08260235
Sr       2.36447194       1.97046093      15.64829096       0.03632480      -0.00011621       0.12550069
Ti       1.97047269       1.97057450      11.40876296      -0.03119828      -0.00017561       0.04501796
Ti       0.39382079       3.94088573      17.12005479       0.00161208       0.00009590      -0.03889256
O        0.00000902       1.97050521      11.54731377      -0.03448029      -0.00013653       0.04650303
O        2.36475793       0.00000361      17.26428137      -0.00112409      -0.00000489      -0.05842446
O        1.97049401       3.94093312      11.56490161       0.02094421       0.00001054      -0.04820921
O        0.39419145       1.97047936      17.25076567      -0.00186045      -0.00006633      -0.00460202
O        1.97043419       1.97038596       9.59480765      -0.00364300       0.00038747       0.02749178
O        0.39416160       3.94090180      15.30049982       0.01363816       0.00008562      -0.01178337
10
Lattice="3.940949890606662 0.0 0.0 0.0 3.940949890606662 0.0 0.0 0.0 26.940967945119528" Properties=species:S:1:pos:R:3:forces:R:3 tau=tau65 tau_p=6 tau_q=5 stage=B constraint=xy_fixed_z_free force_label=raw_dft energy=-15499.237259007266 free_energy=-15499.237259007266 stress="0.01107022636645979 0.0 -0.00046275143806052363 0.0 0.011308947346411647 1.8363152303989035e-06 -0.00046275143806052363 1.8363152303989035e-06 0.00043704302483493903" pbc="T T T"
Sr       0.00003612       0.00009431       9.93772140      -0.00025223      -0.00007096      -0.00466321
Sr       2.36447194       1.97046093      15.68089534       0.03256688      -0.00011750       0.08539636
Ti       1.97047269       1.97057450      11.38314059      -0.02869814      -0.00016892       0.01961700
Ti       0.39382079       3.94088573      17.14877288       0.00208516       0.00010079      -0.04487989
O        0.00000902       1.97050521      11.52128407      -0.03144716      -0.00014527       0.01965454
O        2.36475793       0.00000361      17.29080018      -0.00105158      -0.00000668      -0.03280548
O        1.97049401       3.94093312      11.53770809       0.01900251       0.00000257      -0.06720684
O        0.39419145       1.97047936      17.27828338      -0.00172701      -0.00006839       0.01801341
O        1.97043419       1.97038596       9.56626590      -0.00330387       0.00038592       0.03042001
O        0.39416160       3.94090180      15.33044812       0.01282569       0.00008819      -0.02354591
10
Lattice="3.940949890606662 0.0 0.0 0.0 3.940949890606662 0.0 0.0 0.0 26.940967945119528" Properties=species:S:1:pos:R:3:forces:R:3 tau=tau65 tau_p=6 tau_q=5 stage=B constraint=xy_fixed_z_free force_label=raw_dft energy=-15499.23774119299 free_energy=-15499.23774119299 stress="0.011022482170469418 -0.0 -0.00045816064998452637 -0.0 0.011235494737195692 1.8363152303989035e-06 -0.00045816064998452637 1.8363152303989035e-06 0.00037369014938617686" pbc="T T T"
Sr       0.00003612       0.00009431       9.93097715      -0.00028668      -0.00007122       0.02110516
Sr       2.36447194       1.97046093      15.68840821       0.03198632      -0.00011981       0.05100246
Ti       1.97047269       1.97057450      11.38070763      -0.02829139      -0.00016352       0.00490489
Ti       0.39382079       3.94088573      17.15132175       0.00221321       0.00010670      -0.03091983
O        0.00000902       1.97050521      11.51909862      -0.03103347      -0.00014758       0.01291414
O        2.36475793       0.00000361      17.29283169      -0.00107986      -0.00000746      -0.02017776
O        1.97049401       3.94093312      11.53256177       0.01864230       0.00000154      -0.06082510
O        0.39419145       1.97047936      17.28207904      -0.00171235      -0.00007071       0.02381407
O        1.97043419       1.97038596       9.56323155      -0.00325630       0.00038721       0.02174510
O        0.39416160       3.94090180      15.33410256       0.01281849       0.00008485      -0.02356262
10
Lattice="3.940949890606662 0.0 0.0 0.0 3.940949890606662 0.0 0.0 0.0 26.940967945119528" Properties=species:S:1:pos:R:3:forces:R:3 tau=tau65 tau_p=6 tau_q=5 stage=B constraint=xy_fixed_z_free force_label=raw_dft energy=-15499.238190180824 free_energy=-15499.238190180824 stress="0.01085170485404232 0.0 -0.00046458775329092256 0.0 0.011007791648626227 1.8363152303989035e-06 -0.00046458775329092256 1.8363152303989035e-06 0.0001772044197334942" pbc="T T T"
Sr       0.00003612       0.00009431       9.93545517      -0.00027691      -0.00007071       0.03251931
Sr       2.36447194       1.97046093      15.68839614       0.03249489      -0.00011956       0.00024143
Ti       1.97047269       1.97057450      11.38749710      -0.02842894      -0.00016224      -0.01136942
Ti       0.39382079       3.94088573      17.14322491       0.00197512       0.00011081      -0.00397235
O        0.00000902       1.97050521      11.52688529      -0.03155232      -0.00014887       0.01158256
O        2.36475793       0.00000361      17.28456862      -0.00109375      -0.00000874      -0.00654500
O        1.97049401       3.94093312      11.53430236       0.01877394       0.00000206      -0.03684956
O        0.39419145       1.97047936      17.27729312      -0.00172598      -0.00007251       0.02325666
O        1.97043419       1.97038596       9.57034649      -0.00326684       0.00038592       0.00214867
O        0.39416160       3.94090180      15.32735077       0.01310028       0.00008408      -0.01101229
10
Lattice="3.940949890606662 0.0 0.0 0.0 3.940949890606662 0.0 0.0 0.0 26.940967945119528" Properties=species:S:1:pos:R:3:forces:R:3 tau=tau65 tau_p=6 tau_q=5 stage=B constraint=xy_fixed_z_free force_label=raw_dft energy=-15499.238297665788 free_energy=-15499.238297665788 stress="0.010767234353443969 0.0 -0.0004682603837517204 0.0 0.010896694577187092 1.8363152303989035e-06 -0.0004682603837517204 1.8363152303989035e-06 0.0001009973376719397" pbc="T T T"
Sr       0.00003612       0.00009431       9.93934746      -0.00027896      -0.00007096       0.02252029
Sr       2.36447194       1.97046093      15.68691784       0.03277771      -0.00012007      -0.01148178
Ti       1.97047269       1.97057450      11.39012611      -0.02854439      -0.00016147      -0.01202608
Ti       0.39382079       3.94088573      17.13970592       0.00198309       0.00010644       0.00358155
O        0.00000902       1.97050521      11.53025724      -0.03185854      -0.00014758       0.01428196
O        2.36475793       0.00000361      17.28110354      -0.00111200      -0.00000874      -0.00534327
O        1.97049401       3.94093312      11.53497356       0.01886238       0.00000334      -0.02299055
O        0.39419145       1.97047936      17.27541318      -0.00174192      -0.00007071       0.01780926
O        1.97043419       1.97038596       9.57356722      -0.00329564       0.00038669      -0.00473289
O        0.39416160       3.94090180      15.32390789       0.01320853       0.00008330      -0.00161825
