10
Lattice="3.940949890606662 0.0 0.0 0.0 3.940949890606662 0.0 0.0 0.0 26.940967945119528" Properties=species:S:1:pos:R:3:forces:R:3 tau=tau96 tau_p=9 tau_q=6 stage=B constraint=xy_fixed_z_free force_label=raw_dft energy=-15497.559107929803 free_energy=-15497.559107929803 stress="0.00562646986594224 0.0009548839198074298 -0.000571094036654059 0.0009548839198074298 0.019554920888517922 -0.01199113845450484 -0.000571094036654059 -0.01199113845450484 -0.029109269032283416" pbc="T T T"
Sr       0.00003626       0.00009419      10.75260867       0.00711964      -0.00677409       0.34287923
Sr       3.54675677       2.36455575      14.64522241       0.58167198       0.68039540       4.49301820
Ti       1.97047258       1.97057465      12.38212169      -0.89392423      -0.39745450      -2.60029624
Ti       1.57610567       0.39403075      16.28444791      -0.02734137       0.13092212       0.14126566
O        0.00000906       1.97050529      12.45001441       0.04364885      -0.10549571      -1.30107076
O        3.54704288       0.39409854      16.39256827      -0.00147658       0.03518863      -0.08605097
O        1.97049386       3.94093294      12.44909065       0.81741180      -1.40794432      -3.14336773
O        1.57647651       2.36457427      16.37955485      -0.08769519      -0.01572641      -0.24703391
O        1.97043435       1.97038588      10.49176941      -0.06276037      -0.18565447       0.31328249
O        1.57644656       0.39404691      14.44792112      -0.37665427       1.27254308       2.08737427
10
Lattice="3.940949890606662 0.0 0.0 0.0 3.940949890606662 0.0 0.0 0.0 26.940967945119528" Properties=species:S:1:pos:R:3:forces:R:3 tau=tau96 tau_p=9 tau_q=6 stage=B constraint=xy_fixed_z_free force_label=raw_dft energy=-15498.267493178335 free_energy=-15498.267493178335 stress="0.003979295104274424 0.0007023905756275805 -0.001282666188433634 0.0007023905756275805 0.014774992343789577 -0.00919259404337691 -0.001282666188433634 -0.00919259404337691 -0.027662252630729082" pbc="T T T"
Sr       0.00003612       0.00009431      10.75966576       0.00785035      -0.00460150       0.31918086
Sr       3.54675692       2.36455593      14.73769673       0.53076131       0.42963160       2.84283303
Ti       1.97047269       1.97057450      12.32860340      -0.65605040      -0.35024647      -1.38623264
Ti       1.57610576       0.39403080      16.28735541      -0.01874206       0.10638556       0.55246348
O        0.00000902       1.97050521      12.42323619      -0.11953084       0.03592191      -0.55358988
O        3.54704290       0.39409860      16.39079725      -0.00178280       0.02918202       0.12390892
O        1.97049401       3.94093312      12.38439473       0.61528221      -1.04201592      -2.25859303
O        1.57647643       2.36457436      16.37447042      -0.07622575      -0.01676334       0.01071276
O        1.97043419       1.97038596      10.49821728      -0.06183503      -0.15805111      -0.50141911
O        1.57644658       0.39404688      14.49088280      -0.21972673       0.97055699       0.85073587
10
Lattice="3.940949890606662 0.0 0.0 0.0 3.940949890606662 0.0 0.0 0.0 26.940967945119528" Properties=species:S:1:pos:R:3:forces:R:3 tau=tau96 tau_p=9 tau_q=6 stage=B constraint=xy_fixed_z_free force_label=raw_dft energy=-15498.716992586133 free_energy=-15498.716992586133 stress="0.001495678755159907 0.0005407948353524771 -0.0017573536754917506 0.0005407948353524771 0.009372552935956003 -0.006971570772209437 -0.0017573536754917506 -0.006971570772209437 -0.025437556729100808" pbc="T T T"
Sr       0.00003612       0.00009431      10.77073236       0.00934005      -0.00151618       0.06255365
Sr       3.54675692       2.36455593      14.83941817       0.46182361       0.25885455       1.29781369
Ti       1.97047269       1.97057450      12.27810407      -0.47951280      -0.31097518      -0.55983689
Ti       1.57610576       0.39403080      16.30551893      -0.01081997       0.08627774       0.39427378
O        0.00000902       1.97050521      12.40249355      -0.21628994       0.12231406      -0.05554534
O        3.54704290       0.39409860      16.39461293      -0.00156452       0.02303271       0.45368401
O        1.97049401       3.94093312      12.30451295       0.45032923      -0.75895957      -1.36744404
O        1.57647643       2.36457436      16.37427504      -0.06241302      -0.01493785       0.39868246
O        1.97043419       1.97038596      10.48269987      -0.05633518      -0.13299108      -0.95385999
O        1.57644658       0.39404688      14.52295209      -0.09455746       0.72890055       0.32967867
10
Lattice="3.940949890606662 0.0 0.0 0.0 3.940949890606662 0.0 0.0 0.0 26.940967945119528" Properties=species:S:1:pos:R:3:forces:R:3 tau=tau96 tau_p=9 tau_q=6 stage=B constraint=xy_fixed_z_free force_label=raw_dft energy=-15498.963128941125 free_energy=-15498.963128941125 stress="-0.0016976734305037863 0.0004223525029917478 -0.0020208649110539934 0.0004223525029917478 0.0035248070847506948 -0.005102201867663353 -0.0020208649110539934 -0.005102201867663353 -0.021994465672102864" pbc="T T T"
Sr       0.00003612       0.00009431      10.77911029       0.01067034       0.00235847      -0.45586379
Sr       3.54675692       2.36455593      14.95140185       0.38203225       0.14460218      -0.11268168
Ti       1.97047269       1.97057450      12.22476387      -0.34503279      -0.27815531      -0.36192494
Ti       1.57610576       0.39403080      16.33002806      -0.00336095       0.06646970       0.23822556
O        0.00000902       1.97050521      12.38708515      -0.26313724       0.16728934       0.24549690
O        3.54704290       0.39409860      16.41490748      -0.00235256       0.01748530       0.76748509
O        1.97049401       3.94093312      12.20331081       0.30878075      -0.52484494      -0.36214554
O        1.57647643       2.36457436      16.39004978      -0.04856840      -0.01292571       0.77897895
O        1.97043419       1.97038596      10.43740250      -0.04538228      -0.10634725      -0.76917431
O        1.57644658       0.39404688      14.55726017       0.00635114       0.52406796       0.03160374
10
Lattice="3.940949890606662 0.0 0.0 0.0 3.940949890606662 0.0 0.0 0.0 26.940967945119528" Properties=species:S:1:pos:R:3:forces:R:3 tau=tau96 tau_p=9 tau_q=6 stage=B constraint=xy_fixed_z_free force_label=raw_dft energy=-15499.0423746135 free_energy=-15499.0423746135 stress="-0.001989647552137212 0.0003837898831533708 -0.0020585093732771705 0.0003837898831533708 0.002051164112355575 -0.00443745575425895 -0.0020585093732771705 -0.00443745575425895 -0.019754161091016204" pbc="T T T"
Sr       0.00003612       0.00009431      10.77002080       0.01079606       0.00367642      -0.64950540
Sr       3.54675692       2.36455593      14.99346821       0.34599567       0.11205947      -0.47378464
Ti       1.97047269       1.97057450      12.19215970      -0.29804768      -0.26354862      -0.26258599
Ti       1.57610576       0.39403080      16.34494092      -0.00071451       0.05997304       0.29375496
O        0.00000902       1.97050521      12.38608336      -0.27150515       0.17513275       0.19010917
O        3.54704290       0.39409860      16.44192687      -0.00314240       0.01556880       0.75078526
O        1.97049401       3.94093312      12.15478462       0.25793898      -0.44360965      -0.01662552
O        1.57647643       2.36457436      16.41560643      -0.04266566      -0.01192658       0.78646575
O        1.97043419       1.97038596      10.40314390      -0.03905069      -0.09446336      -0.58568959
O        1.57644658       0.39404688      14.57318516       0.04039563       0.44713772      -0.03292426
10
Lattice="3.940949890606662 0.0 0.0 0.0 3.940949890606662 0.0 0.0 0.0 26.940967945119528" Properties=species:S:1:pos:R:3:forces:R:3 tau=tau96 tau_p=9 tau_q=6 stage=B constraint=xy_fixed_z_free force_label=raw_dft energy=-15499.137013629675 free_energy=-15499.137013629675 stress="-0.0006675005862500014 0.0003461454209301933 -0.0020768725255811598 0.0003461454209301933 0.00199240202498281 -0.0038305535706121127 -0.0020768725255811598 -0.0038305535706121127 -0.01604204985276482" pbc="T T T"
Sr       0.00003612       0.00009431      10.74381658       0.01034946       0.00457862      -0.76222410
Sr       3.54675692       2.36455593      15.02992219       0.31087208       0.08587690      -0.62619963
Ti       1.97047269       1.97057450      12.14914794      -0.25584816      -0.24728022      -0.11545487
Ti       1.57610576       0.39403080      16.36900942       0.00215818       0.05456112       0.35611681
O        0.00000902       1.97050521      12.38729373      -0.27642804       0.17883154      -0.00231965
O        3.54704290       0.39409860      16.48814219      -0.00397981       0.01378034       0.59010803
O        1.97049401       3.94093312      12.10140580       0.21100658      -0.37083278       0.23026389
O        1.57647643       2.36457436      16.46110392      -0.03656006      -0.01061686       0.64258013
O        1.97043419       1.97038596      10.35429803      -0.03199686      -0.08191355      -0.34381794
O        1.57644658       0.39404688      14.59118016       0.07042663       0.37301488       0.03094708
10
Lattice="3.940949890606662 0.0 0.0 0.0 3.940949890606662 0.0 0.0 0.0 26.940967945119528" Properties=species:S:1:pos:R:3:forces:R:3 tau=tau96 tau_p=9 tau_q=6 stage=B constraint=xy_fixed_z_free force_label=raw_dft energy=-15499.246730201536 free_energy=-15499.246730201536 stress="0.0032319148055020702 0.00029564675209422343 -0.002085135944117955 0.00029564675209422343 0.003921451174516859 -0.0031860069247420975 -0.002085135944117955 -0.0031860069247420975 -0.009732470721114187" pbc="T T T"
Sr       0.00003612       0.00009431      10.68492988       0.00856563       0.00502214      -0.75115319
Sr       3.54675692       2.36455593      15.06421865       0.27358517       0.06239502      -0.53398830
Ti       1.97047269       1.97057450      12.08659788      -0.21210084      -0.22675022       0.07090074
Ti       1.57610576       0.39403080      16.41339176       0.00488664       0.04906179       0.43234514
O        0.00000902       1.97050521      12.38615995      -0.27687927       0.17810392      -0.35344775
O        3.54704290       0.39409860      16.56766298      -0.00464547       0.01164787       0.23767380
O        1.97049401       3.94093312      12.03368542       0.16185094      -0.29546680       0.37139919
O        1.57647643       2.36457436      16.54117215      -0.02948875      -0.00887982       0.29609827
O        1.97043419       1.97038596      10.27811334      -0.02388118      -0.06672655       0.00520057
O        1.57644658       0.39404688      14.61938795       0.09810738       0.29159292       0.22497178
10
Lattice="3.940949890606662 0.0 0.0 0.0 3.940949890606662 0.0 0.0 0.0 26.940967945119528" Properties=species:S:1:pos:R:3:forces:R:3 tau=tau96 tau_p=9 tau_q=6 stage=B constraint=xy_fixed_z_free force_label=raw_dft energy=-15499.307625469031 free_energy=-15499.307625469031 stress="0.007358115128208406 0.00025524781702544757 -0.0021007446235763454 0.00025524781702544757 0.006725504531335984 -0.0028756696508046827 -0.0021007446235763454 -0.0028756696508046827 -0.004811145903645127" pbc="T T T"
Sr       0.00003612       0.00009431      10.62293952       0.00684093       0.00454957      -0.56722804
Sr       3.54675692       2.36455593      15.07356395       0.25726510       0.05417083      -0.27668567
Ti       1.97047269       1.97057450      12.04510364      -0.19301477      -0.21533889       0.14753993
Ti       1.57610576       0.39403080      16.45658495       0.00648201       0.04788063       0.41252476
O        0.00000902       1.97050521      12.37571056      -0.27195458       0.17312755      -0.57440887
O        3.54704290       0.39409860      16.63046512      -0.00478559       0.01023016      -0.03543392
O        1.97049401       3.94093312      11.99569414       0.13687113      -0.25765102       0.31299427
O        1.57647643       2.36457436      16.60594954      -0.02552874      -0.00777759       0.01218651
O        1.97043419       1.97038596      10.22343719      -0.01974170      -0.05803263       0.19702415
O        1.57644658       0.39404688      14.64587133       0.10756596       0.24884113       0.37148661
10
Lattice="3.940949890606662 0.0 0.0 0.0 3.940949890606662 0.0 0.0 0.0 26.940967945119528" Properties=species:S:1:pos:R:3:forces:R:3 tau=tau96 tau_p=9 tau_q=6 stage=B constraint=xy_fixed_z_free force_label=raw_dft energy=-15499.349968015013 free_energy=-15499.349968015013 stress="0.010778252244826363 0.00021760335480227008 -0.0021301256672627282 0.00021760335480227008 0.009539657621922304 -0.00274620942706156 -0.0021301256672627282 -0.00274620942706156 -0.0015112874346182976" pbc="T T T"
Sr       0.00003612       0.00009431      10.56407238       0.00493343       0.00343808      -0.29459109
Sr       3.54675692       2.36455593      15.06979149       0.25271733       0.05375740       0.00152724
Ti       1.97047269       1.97057450      12.02164888      -0.18658804      -0.20909625       0.10952205
Ti       1.57610576       0.39403080      16.49780847       0.00695818       0.04797087       0.29724806
O        0.00000902       1.97050521      12.35354536      -0.26358590       0.16609018      -0.62771118
O        3.54704290       0.39409860      16.67398482      -0.00465884       0.00905465      -0.17489878
O        1.97049401       3.94093312      11.97909534       0.12431387      -0.23856623       0.18461035
O        1.57647643       2.36457436      16.65223332      -0.02337930      -0.00691807      -0.14458110
O        1.97043419       1.97038596      10.18947190      -0.01806894      -0.05272073       0.24031793
O        1.57644658       0.39404688      14.67366799       0.10735847       0.22699010       0.40855652
10
Lattice="3.940949890606662 0.0 0.0 0.0 3.940949890606662 0.0 0.0 0.0 26.940967945119528" Properties=species:S:1:pos:R:3:forces:R:3 tau=tau96 tau_p=9 tau_q=6 stage=B constraint=xy_fixed_z_free force_label=raw_dft energy=-15499.382314459126 free_energy=-15499.382314459126 stress="0.013075482598055391 0.0001762862621182947 -0.002150325134797116 0.0001762862621182947 0.01187453243737451 -0.002677347605921601 -0.002150325134797116 -0.002677347605921601 0.00036726304607978067" pbc="T T T"
Sr       0.00003612       0.00009431      10.50934116       0.00313289       0.00209185       0.00666944
Sr       3.54675692       2.36455593      15.06444553       0.25172694       0.05633544       0.23781496
Ti       1.97047269       1.97057450      12.00788939      -0.18492377      -0.20506142      -0.00674349
Ti       1.57610576       0.39403080      16.53881686       0.00713018       0.04902759       0.10654600
O        0.00000902       1.97050521      12.31797929      -0.25126440       0.15729958      -0.53851704
O        3.54704290       0.39409860      16.70311277      -0.00441227       0.00781281      -0.18786408
O        1.97049401       3.94093312      11.97336174       0.11700448      -0.22602131       0.06776168
O        1.57647643       2.36457436      16.68452765      -0.02192097      -0.00598707      -0.17600075
O        1.97043419       1.97038596      10.16937025      -0.01776684      -0.04867201       0.16038464
O        1.57644658       0.39404688      14.70647531       0.10129401       0.21317505       0.32994864
10
Lattice="3.940949890606662 0.0 0.0 0.0 3.940949890606662 0.0 0.0 0.0 26.940967945119528" Properties=species:S:1:pos:R:3:forces:R:3 tau=tau96 tau_p=9 tau_q=6 stage=B constraint=xy_fixed_z_free force_label=raw_dft energy=-15499.401526104304 free_energy=-15499.401526104304 stress="0.013507934834814331 0.00014506890320151335 -0.0021282893520323293 0.00014506890320151335 0.0127256645466644 -0.0026048131543208444 -0.0021282893520323293 -0.0026048131543208444 0.0005554853571956682" pbc="T T T"
Sr       0.00003612       0.00009431      10.47769586       0.00202423       0.00143545       0.18522304
Sr       3.54675692       2.36455593      15.06880436       0.24729693       0.05751635       0.31700751
Ti       1.97047269       1.97057450      11.99961014      -0.18152425      -0.19927155      -0.10707591
Ti       1.57610576       0.39403080      16.56641900       0.00738215       0.04810405      -0.02680246
O        0.00000902       1.97050521      12.28155462      -0.23825127       0.14928751      -0.38959335
O        3.54704290       0.39409860      16.71486895      -0.00425389       0.00674657      -0.11382762
O        1.97049401       3.94093312      11.97157717       0.11280792      -0.21665144       0.03453609
O        1.57647643       2.36457436      16.69846370      -0.02092055      -0.00527976      -0.11199725
O        1.97043419       1.97038596      10.16152401      -0.01817076      -0.04561908       0.02973815
O        1.57644658       0.39404688      14.73480216       0.09360975       0.20373216       0.18279181
10
Lattice="3.940949890606662 0.0 0.0 0.0 3.940949890606662 0.0 0.0 0.0 26.940967945119528" Properties=species:S:1:pos:R:3:forces:R:3 tau=tau96 tau_p=9 tau_q=6 stage=B constraint=xy_fixed_z_free force_label=raw_dft energy=-15499.417292924345 free_energy=-15499.417292924345 stress="0.01284410687902513 0.00011752417474552982 -0.002048409639509977 0.00011752417474552982 0.012566823279234897 -0.002468007669656126 -0.002048409639509977 -0.002468007669656126 -7.620708206155449e-05" pbc="T T T"
Sr       0.00003612       0.00009431      10.45804480       0.00132797       0.00127372       0.25915563
Sr       3.54675692       2.36455593      15.08694929       0.23454246       0.05580142       0.27521448
Ti       1.97047269       1.97057450      11.98683963      -0.17185485      -0.18841378      -0.16470153
Ti       1.57610576       0.39403080      16.58926026       0.00779404       0.04540774      -0.10153801
O        0.00000902       1.97050521      12.24050012      -0.22232278       0.14003745      -0.22694536
O        3.54704290       0.39409860      16.72241463      -0.00409242       0.00554330      -0.00364685
O        1.97049401       3.94093312      11.96651480       0.10774645      -0.20447675       0.05706898
O        1.57647643       2.36457436      16.70760678      -0.01962343      -0.00480385      -0.00553430
O        1.97043419       1.97038596      10.15344889      -0.01843918      -0.04195578      -0.10212807
O        1.57644658       0.39404688      14.76374078       0.08492199       0.19158678       0.01305478
10
Lattice="3.940949890606662 0.0 0.0 0.0 3.940949890606662 0.0 0.0 0.0 26.940967945119528" Properties=species:S:1:pos:R:3:forces:R:3 tau=tau96 tau_p=9 tau_q=6 stage=B constraint=xy_fixed_z_free force_label=raw_dft energy=-15499.430098329476 free_energy=-15499.430098329476 stress="0.011642238560729047 9.548839198074298e-05 -0.0019134404700756574 9.548839198074298e-05 0.011745072213631387 -0.002266931151927446 -0.0019134404700756574 -0.002266931151927446 -0.0008685771039786813" pbc="T T T"
Sr       0.00003612       0.00009431      10.44514536       0.00100170       0.00147350       0.22778663
Sr       3.54675692       2.36455593      15.11848776       0.21308969       0.05147631       0.14609959
Ti       1.97047269       1.97057450      11.96443496      -0.15547204      -0.17260895      -0.16300460
Ti       1.57610576       0.39403080      16.61044032       0.00773439       0.04086897      -0.10837097
O        0.00000902       1.97050521      12.19722858      -0.20397590       0.12929358      -0.09914482
O        3.54704290       0.39409860      16.73447740      -0.00379880       0.00434491       0.09080802
O        1.97049401       3.94093312      11.95481224       0.10066717      -0.18850531       0.10589551
O        1.57647643       2.36457436      16.72081329      -0.01767865      -0.00441098       0.09027195
O        1.97043419       1.97038596      10.13704162      -0.01800929      -0.03728562      -0.17420098
O        1.57644658       0.39404688      14.79243844       0.07644198       0.17535361      -0.11614033
10
Lattice="3.940949890606662 0.0 0.0 0.0 3.940949890606662 0.0 0.0 0.0 26.940967945119528" Properties=species:S:1:pos:R:3:forces:R:3 tau=tau96 tau_p=9 tau_q=6 stage=B constraint=xy_fixed_z_free force_label=raw_dft energy=-15499.439573469397 free_energy=-15499.439573469397 stress="0.010611147558860064 7.896155490715285e-05 -0.0017555173602613516 7.896155490715285e-05 0.010908630626184685 -0.002046573324279578 -0.0017555173602613516 -0.002046573324279578 -0.001140351758077719" pbc="T T T"
Sr       0.00003612       0.00009431      10.43283173       0.00091866       0.00177715       0.13401875
Sr       3.54675692       2.36455593      15.15534284       0.18860944       0.04647320       0.01011858
Ti       1.97047269       1.97057450      11.93331167      -0.13677240      -0.15547692      -0.11693943
Ti       1.57610576       0.39403080      16.63202750       0.00709547       0.03620422      -0.07030630
O        0.00000902       1.97050521      12.15606902      -0.18580771       0.11815633      -0.03675418
O        3.54704290       0.39409860      16.75588755      -0.00346662       0.00336377       0.12398194
O        1.97049401       3.94093312      11.93819810       0.09261628      -0.17172578       0.13653663
O        1.57647643       2.36457436      16.74319644      -0.01545207      -0.00410245       0.12674922
O        1.97043419       1.97038596      10.10999411      -0.01680242      -0.03239307      -0.15569829
O        1.57644658       0.39404688      14.81846101       0.06906189       0.15772381      -0.15170691
10
Lattice="3.940949890606662 0.0 0.0 0.0 3.940949890606662 0.0 0.0 0.0 26.940967945119528" Properties=species:S:1:pos:R:3:forces:R:3 tau=tau96 tau_p=9 tau_q=6 stage=B constraint=xy_fixed_z_free force_label=raw_dft energy=-15499.445522558193 free_energy=-15499.445522558193 stress="0.010174104534025124 6.610734829436053e-05 -0.0016122847722902373 6.610734829436053e-05 0.010587275460864878 -0.0018611054860092886 -0.0016122847722902373 -0.0018611054860092886 -0.0006720913743259987" pbc="T T T"
Sr       0.00003612       0.00009431      10.41708977       0.00074125       0.00194890       0.04586282
Sr       3.54675692       2.36455593      15.18789745       0.16727057       0.04255921      -0.06271846
Ti       1.97047269       1.97057450      11.89927857      -0.12089250      -0.14086483      -0.05383273
Ti       1.57610576       0.39403080      16.65459503       0.00629098       0.03321788      -0.02333405
O        0.00000902       1.97050521      12.11890162      -0.16991907       0.10794262      -0.02806488
O        3.54704290       0.39409860      16.78458022      -0.00316940       0.00257625       0.09099751
O        1.97049401       3.94093312      11.92189990       0.08550049      -0.15765002       0.12081434
O        1.57647643       2.36457436      16.77300685      -0.01338336      -0.00392273       0.09519638
O        1.97043419       1.97038596      10.07717241      -0.01531015      -0.02812530      -0.07907119
O        1.57644658       0.39404688      14.84089816       0.06287119       0.14231776      -0.10584949
10
Lattice="3.940949890606662 0.0 0.0 0.0 3.940949890606662 0.0 0.0 0.0 26.940967945119528" Properties=species:S:1:pos:R:3:forces:R:3 tau=tau96 tau_p=9 tau_q=6 stage=B constraint=xy_fixed_z_free force_label=raw_dft energy=-15499.44776763342 free_energy=-15499.44776763342 stress="0.010229193990937092 6.059840260316382e-05 -0.001532405059767885 6.059840260316382e-05 0.010787433820978359 -0.001772044197334942 -0.001532405059767885 -0.001772044197334942 -1.2854206612792324e-05" pbc="T T T"
Sr       0.00003612       0.00009431      10.40458913       0.00062015       0.00193733       0.01244388
Sr       3.54675692       2.36455593      15.20371766       0.15615775       0.04116979      -0.05817661
Ti       1.97047269       1.97057450      11.87773398      -0.11341907      -0.13302862      -0.01644349
Ti       1.57610576       0.39403080      16.66984125       0.00580144       0.03165259       0.00069805
O        0.00000902       1.97050521      12.09537099      -0.16082482       0.10198255      -0.03379304
O        3.54704290       0.39409860      16.80563342      -0.00295908       0.00222478       0.03964847
O        1.97049401       3.94093312      11.91473257       0.08220948      -0.15110630       0.07612368
O        1.57647643       2.36457436      16.79502514      -0.01214486      -0.00375278       0.04229362
O        1.97043419       1.97038596      10.05509238      -0.01447197      -0.02571823      -0.01624089
O        1.57644658       0.39404688      14.85358345       0.05903124       0.13463865      -0.04655419
10
Lattice="3.940949890606662 0.0 0.0 0.0 3.940949890606662 0.0 0.0 0.0 26.940967945119528" Properties=species:S:1:pos:R:3:forces:R:3 tau=tau96 tau_p=9 tau_q=6 stage=B constraint=xy_fixed_z_free force_label=raw_dft energy=-15499.448415400413 free_energy=-15499.448415400413 stress="0.01033294580145463 5.876208737276491e-05 -0.0015057784889271008 5.876208737276491e-05 0.011063799263153392 -0.0017555173602613516 -0.0015057784889271008 -0.0017555173602613516 0.0003314548990870021" pbc="T T T"
Sr       0.00003612       0.00009431      10.40007990       0.00058570       0.00193347       0.00959587
Sr       3.54675692       2.36455593      15.20635753       0.15301843       0.04132868      -0.03263707
Ti       1.97047269       1.97057450      11.87062772      -0.11160028      -0.13059893      -0.00150435
Ti       1.57610576       0.39403080      16.67531480       0.00546797       0.03138237       0.00303364
O        0.00000902       1.97050521      12.08523404      -0.15764333       0.09981048      -0.02881641
O        3.54704290       0.39409860      16.81353617      -0.00286909       0.00207951       0.01061737
O        1.97049401       3.94093312      11.91590561       0.08202410      -0.15051726       0.03844853
O        1.57647643       2.36457436      16.80345098      -0.01176254      -0.00371730       0.01145298
O        1.97043419       1.97038596      10.04769593      -0.01435344      -0.02493559       0.00473263
O        1.57644658       0.39404688      14.85711730       0.05713248       0.13323431      -0.01492320
10
Lattice="3.940949890606662 0.0 0.0 0.0 3.940949890606662 0.0 0.0 0.0 26.940967945119528" Properties=species:S:1:pos:R:3:forces:R:3 tau=tau96 tau_p=9 tau_q=6 stage=B constraint=xy_fixed_z_free force_label=raw_dft energy=-15499.448711052099 free_energy=-15499.448711052099 stress="0.010344881850452223 5.876208737276491e-05 -0.0015048603313119013 5.876208737276491e-05 0.011246512628578084 -0.001773880512565341 -0.0015048603313119013 -0.001773880512565341 0.0004113346116093544" pbc="T T T"
Sr       0.00003612       0.00009431      10.40154615       0.00062066       0.00196561       0.01144861
Sr       3.54675692       2.36455593      15.20297199       0.15366558       0.04205836      -0.01066751
Ti       1.97047269       1.97057450      11.87145161      -0.11256521      -0.13090669       0.00170233
Ti       1.57610576       0.39403080      16.67451736       0.00535715       0.03176058      -0.00019592
O        0.00000902       1.97050521      12.08283816      -0.15754126       0.09966110      -0.01627380
O        3.54704290       0.39409860      16.81342017      -0.00284133       0.00205405      -0.00188668
O        1.97049401       3.94093312      11.92117291       0.08338550      -0.15287754       0.01260432
O        1.57647643       2.36457436      16.80351254      -0.01178594      -0.00373736      -0.00224174
O        1.97043419       1.97038596      10.04857959      -0.01456967      -0.02499575       0.00660234
O        1.57644658       0.39404688      14.85530949       0.05627425       0.13501788      -0.00109169
