10
Lattice="3.940949890606662 0.0 0.0 0.0 3.940949890606662 0.0 0.0 0.0 26.940967945119528" Properties=species:S:1:pos:R:3:forces:R:3 tau=tau92 tau_p=9 tau_q=2 stage=B constraint=xy_fixed_z_free force_label=raw_dft energy=-15499.601792229512 free_energy=-15499.601792229512 stress="0.008879502296593898 -0.0008915310443586677 -0.0055741348818758715 -0.0008915310443586677 0.010971983501633448 0.013118636005969764 -0.0055741348818758715 0.013118636005969764 -0.006708059536647193" pbc="T T T"
Sr       0.00003626       0.00009419      10.75260867       0.00195790       0.00040443       0.19420159
Sr       3.54675677       0.78817579      14.64522241       0.45209892      -0.70815509       1.63942691
Ti       1.97047258       1.97057465      12.38212169      -0.55363127       0.59827128      -0.63501466
Ti       1.57610567       2.75860069      16.28444791       0.03810915      -0.12209732      -0.01606400
O        0.00000906       1.97050529      12.45001441      -0.67269186      -0.27667178      -0.41035578
O        3.54704288       2.75866847      16.39256827       0.00749039      -0.03940781      -0.04897489
O        1.97049386       3.94093294      12.44909065       0.40849687       1.64455857      -1.02302832
O        1.57647651       0.78819431      16.37955485      -0.00584540      -0.00435828      -0.04498479
O        1.97043435       1.97038588      10.49176941      -0.12781185       0.27095982       0.17306224
O        1.57644656       2.75861684      14.44792112       0.45182716      -1.36350383       0.17173169
10
Lattice="3.940949890606662 0.0 0.0 0.0 3.940949890606662 0.0 0.0 0.0 26.940967945119528" Properties=species:S:1:pos:R:3:forces:R:3 tau=tau92 tau_p=9 tau_q=2 stage=B constraint=xy_fixed_z_free force_label=raw_dft energy=-15499.682515480035 free_energy=-15499.682515480035 stress="0.008052242285299192 -0.0008419505331378973 -0.005314296276774427 -0.0008419505331378973 0.009970273543450847 0.012270258369525472 -0.005314296276774427 0.012270258369525472 -0.007060632060883783" pbc="T T T"
Sr       0.00003612       0.00009431      10.75660572       0.00163548       0.00068468       0.17638025
Sr       3.54675692       0.78817596      14.67896492       0.41033572      -0.61322662       1.26715457
Ti       1.97047269       1.97057450      12.36905227      -0.50402132       0.55771753      -0.46634901
Ti       1.57610576       2.75860075      16.28411729       0.03796362      -0.11760097      -0.04952973
O        0.00000902       1.97050521      12.44156863      -0.66186443      -0.31352418      -0.28986386
O        3.54704290       2.75866855      16.39156034       0.00611023      -0.03730619       0.01498619
O        1.97049401       3.94093312      12.42803496       0.39970987       1.54338001      -0.86075186
O        1.57647643       0.78819439      16.37862894      -0.00647995      -0.00198643       0.02107353
O        1.97043419       1.97038596      10.49533131      -0.12525515       0.26528360      -0.02954300
O        1.57644658       2.75861683      14.45145558       0.44186542      -1.28342142       0.21644292
10
Lattice="3.940949890606662 0.0 0.0 0.0 3.940949890606662 0.0 0.0 0.0 26.940967945119528" Properties=species:S:1:pos:R:3:forces:R:3 tau=tau92 tau_p=9 tau_q=2 stage=B constraint=xy_fixed_z_free force_label=raw_dft energy=-15499.75127932735 free_energy=-15499.75127932735 stress="0.00706614100657498 -0.000790533706686728 -0.005049866883596985 -0.000790533706686728 0.00877758680130676 0.011375054694706007 -0.005049866883596985 0.011375054694706007 -0.007496756928103524" pbc="T T T"
Sr       0.00003612       0.00009431      10.76172605       0.00163136       0.00041343       0.11490543
Sr       3.54675692       0.78817596      14.71608136       0.37031367      -0.52339304       0.89041005
Ti       1.97047269       1.97057450      12.35534948      -0.45673951       0.52264357      -0.35800863
Ti       1.57610576       2.75860075      16.28273155       0.03755842      -0.11127375       0.00475603
O        0.00000902       1.97050521      12.43303032      -0.64667410      -0.34338960      -0.16555847
O        3.54704290       2.75866855      16.39190670       0.00438013      -0.03516832       0.07509215
O        1.97049401       3.94093312      12.40294525       0.38429482       1.42820358      -0.66121831
O        1.57647643       0.78819439      16.37914835      -0.00725128       0.00069574       0.08312017
O        1.97043419       1.97038596      10.49475215      -0.12087502       0.25672208      -0.16538055
O        1.57644658       2.75861683      14.45764876       0.43336175      -1.19545370       0.18188267
10
Lattice="3.940949890606662 0.0 0.0 0.0 3.940949890606662 0.0 0.0 0.0 26.940967945119528" Properties=species:S:1:pos:R:3:forces:R:3 tau=tau92 tau_p=9 tau_q=2 stage=B constraint=xy_fixed_z_free force_label=raw_dft energy=-15499.818023273638 free_energy=-15499.818023273638 stress="0.005470383071358334 -0.0007326897769291624 -0.004690867256053999 -0.0007326897769291624 0.0068522102822335075 0.010117178761882758 -0.004690867256053999 0.010117178761882758 -0.008069687279987981" pbc="T T T"
Sr       0.00003612       0.00009431      10.76898182       0.00196329      -0.00049777      -0.01805480
Sr       3.54675692       0.78817596      14.77175603       0.31909216      -0.40938930       0.35819607
Ti       1.97047269       1.97057450      12.33348874      -0.39503689       0.47863168      -0.23482271
Ti       1.57610576       2.75860075      16.28236772       0.03685291      -0.10143850       0.09469399
O        0.00000902       1.97050521      12.42175803      -0.62191077      -0.37356972      -0.01728990
O        3.54704290       2.75866855      16.39501373       0.00181083      -0.03208428       0.16739887
O        1.97049401       3.94093312      12.36309549       0.35502435       1.26108291      -0.36296932
O        1.57647643       0.78819439      16.38266537      -0.00826481       0.00415542       0.17764420
O        1.97043419       1.97038596      10.48817095      -0.11247085       0.24160399      -0.29075217
O        1.57644658       2.75861683      14.46802210       0.42293979      -1.06849442       0.12595629
10
Lattice="3.940949890606662 0.0 0.0 0.0 3.940949890606662 0.0 0.0 0.0 26.940967945119528" Properties=species:S:1:pos:R:3:forces:R:3 tau=tau92 tau_p=9 tau_q=2 stage=B constraint=xy_fixed_z_free force_label=raw_dft energy=-15499.847545448221 free_energy=-15499.847545448221 stress="0.003920533016901659 -0.0006895363690147883 -0.004375939194040587 -0.0006895363690147883 0.004958051122077039 0.008956627536270651 -0.004375939194040587 0.008956627536270651 -0.008293717738096647" pbc="T T T"
Sr       0.00003612       0.00009431      10.77349979       0.00256570      -0.00175555      -0.18330577
Sr       3.54675692       0.78817596      14.82654115       0.27659671      -0.31601043      -0.12099277
Ti       1.97047269       1.97057450      12.30837509      -0.34304275       0.44338134      -0.14006676
Ti       1.57610576       2.75860075      16.28568977       0.03623507      -0.09223910       0.17558963
O        0.00000902       1.97050521      12.41242968      -0.59601128      -0.39001758       0.07331501
O        3.54704290       2.75866855      16.40320031      -0.00061989      -0.02906041       0.25026578
O        1.97049401       3.94093312      12.32038592       0.32051295       1.10269087      -0.07741335
O        1.57647643       0.78819439      16.39151516      -0.00902431       0.00696640       0.26151950
O        1.97043419       1.97038596      10.47366887      -0.10201495       0.22372634      -0.32332985
O        1.57644658       2.75861683      14.48001421       0.41480276      -0.94768214       0.08441857
10
Lattice="3.940949890606662 0.0 0.0 0.0 3.940949890606662 0.0 0.0 0.0 26.940967945119528" Properties=species:S:1:pos:R:3:forces:R:3 tau=tau92 tau_p=9 tau_q=2 stage=B constraint=xy_fixed_z_free force_label=raw_dft energy=-15499.856544661037 free_energy=-15499.856544661037 stress="0.0038810522394480823 -0.0006794366352475943 -0.004299732111979032 -0.0006794366352475943 0.004792782751341138 0.008638945001411642 -0.004299732111979032 0.008638945001411642 -0.0077382323809009786" pbc="T T T"
Sr       0.00003612       0.00009431      10.77049829       0.00272023      -0.00213247      -0.22739891
Sr       3.54675692       0.78817596      14.84015006       0.26550651      -0.29309728      -0.20346733
Ti       1.97047269       1.97057450      12.29763173      -0.33042738       0.43797200      -0.11395721
Ti       1.57610576       2.75860075      16.29069520       0.03659091      -0.09045809       0.18764939
O        0.00000902       1.97050521      12.41106276      -0.58893715      -0.39172222       0.05624622
O        3.54704290       2.75866855      16.41111372      -0.00136268      -0.02814895       0.24655465
O        1.97049401       3.94093312      12.30617255       0.30817011       1.05519359      -0.01467123
O        1.57647643       0.78819439      16.39986678      -0.00920326       0.00752922       0.25627882
O        1.97043419       1.97038596      10.46282887      -0.09742784       0.21595570      -0.26667688
O        1.57644658       2.75861683      14.48530000       0.41437004      -0.91109149       0.07944246
10
Lattice="3.940949890606662 0.0 0.0 0.0 3.940949890606662 0.0 0.0 0.0 26.940967945119528" Properties=species:S:1:pos:R:3:forces:R:3 tau=tau92 tau_p=9 tau_q=2 stage=B constraint=xy_fixed_z_free force_label=raw_dft energy=-15499.86908557152 free_energy=-15499.86908557152 stress="0.004257496861679857 -0.0006675005862500014 -0.0042345429212998715 -0.0006675005862500014 0.0050177313670650035 0.008335952988395822 -0.0042345429212998715 0.008335952988395822 -0.00668051480819121" pbc="T T T"
Sr       0.00003612       0.00009431      10.76284011       0.00281330      -0.00235873      -0.25479247
Sr       3.54675692       0.78817596      14.85112303       0.25524627      -0.27273414      -0.23057962
Ti       1.97047269       1.97057450      12.28397921      -0.31988560       0.43601539      -0.07606943
Ti       1.57610576       2.75860075      16.29957185       0.03753785      -0.08979321       0.18647029
O        0.00000902       1.97050521      12.41020128      -0.58154754      -0.39149648       0.00566928
O        3.54704290       2.75866855      16.42392271      -0.00209519      -0.02712797       0.21697077
O        1.97049401       3.94093312      12.29081092       0.29448027       1.00628324       0.02559867
O        1.57647643       0.78819439      16.41330466      -0.00930045       0.00788557       0.22380425
O        1.97043419       1.97038596      10.44719416      -0.09177604       0.20635520      -0.17826384
O        1.57644658       2.75861683      14.49237205       0.41452739      -0.87302836       0.08119210
10
Lattice="3.940949890606662 0.0 0.0 0.0 3.940949890606662 0.0 0.0 0.0 26.940967945119528" Properties=species:S:1:pos:R:3:forces:R:3 tau=tau92 tau_p=9 tau_q=2 stage=B constraint=xy_fixed_z_free force_label=raw_dft energy=-15499.88546301501 free_energy=-15499.88546301501 stress="0.005175654476879309 -0.000648219276330813 -0.004162926627314314 -0.000648219276330813 0.005720121942692584 0.007983380464159232 -0.004162926627314314 0.007983380464159232 -0.004913979556547466" pbc="T T T"
Sr       0.00003612       0.00009431      10.74742896       0.00272820      -0.00248600      -0.25842312
Sr       3.54675692       0.78817596      14.86150219       0.24414913      -0.25104148      -0.20342465
Ti       1.97047269       1.97057450      12.26455432      -0.30921835       0.43662757      -0.01902899
Ti       1.57610576       2.75860075      16.31509282       0.03922424      -0.08993950       0.16703969
O        0.00000902       1.97050521      12.40847417      -0.57066072      -0.38885673      -0.08166158
O        3.54704290       2.75866855      16.44491602      -0.00287604      -0.02574651       0.15474287
O        1.97049401       3.94093312      12.27091078       0.27678671       0.94564069       0.05121612
O        1.57647643       0.78819439      16.43524089      -0.00926368       0.00805141       0.15685041
O        1.97043419       1.97038596      10.42374210      -0.08425068       0.19318395      -0.05436263
O        1.57644658       2.75861683      14.50345770       0.41338119      -0.82543313       0.08705190
10
Lattice="3.940949890606662 0.0 0.0 0.0 3.940949890606662 0.0 0.0 0.0 26.940967945119528" Properties=species:S:1:pos:R:3:forces:R:3 tau=tau92 tau_p=9 tau_q=2 stage=B constraint=xy_fixed_z_free force_label=raw_dft energy=-15499.901437730025 free_energy=-15499.901437730025 stress="0.00694953498944465 -0.0006105748141076354 -0.004073865338639967 -0.0006105748141076354 0.007179074393244512 0.007550928227400291 -0.004073865338639967 0.007550928227400291 -0.0021282893520323293" pbc="T T T"
Sr       0.00003612       0.00009431      10.71839552       0.00237698      -0.00234176      -0.21542065
Sr       3.54675692       0.78817596      14.87118446       0.23218064      -0.22748169      -0.09502772
Ti       1.97047269       1.97057450      12.23683432      -0.29808367       0.43882277       0.04675911
Ti       1.57610576       2.75860075      16.34178341       0.04185319      -0.09074297       0.12058602
O        0.00000902       1.97050521      12.40300301      -0.55174254      -0.38186410      -0.20391265
O        3.54704290       2.75866855      16.47872354      -0.00361343      -0.02363898       0.04972359
O        1.97049401       3.94093312      12.24390129       0.25356631       0.86739379       0.05808662
O        1.57647643       0.78819439      16.47041898      -0.00907857       0.00800924       0.04471765
O        1.97043419       1.97038596      10.38925973      -0.07450800       0.17523559       0.09965313
O        1.57644658       2.75861683      14.52181571       0.40704908      -0.76339190       0.09483540
10
Lattice="3.940949890606662 0.0 0.0 0.0 3.940949890606662 0.0 0.0 0.0 26.940967945119528" Properties=species:S:1:pos:R:3:forces:R:3 tau=tau92 tau_p=9 tau_q=2 stage=B constraint=xy_fixed_z_free force_label=raw_dft energy=-15499.906938103102 free_energy=-15499.906938103102 stress="0.008073359910448778 -0.0005775211399604551 -0.004029793773110394 -0.0005775211399604551 0.008175275405735918 0.007360869601054004 -0.004029793773110394 0.007360869601054004 -0.000648219276330813" pbc="T T T"
Sr       0.00003612       0.00009431      10.69734687       0.00196715      -0.00195790      -0.14731881
Sr       3.54675692       0.78817596      14.87380780       0.22797740      -0.21895000      -0.00641233
Ti       1.97047269       1.97057450      12.22304536      -0.29488676       0.44121210       0.06694176
Ti       1.57610576       2.75860075      16.35938003       0.04324904      -0.09132687       0.07758355
O        0.00000902       1.97050521      12.39514817      -0.53662677      -0.37540652      -0.24057992
O        3.54704290       2.75866855      16.49850905      -0.00376744      -0.02224801      -0.00560423
O        1.97049401       3.94093312      12.23076841       0.24250594       0.82894551       0.05094924
O        1.57647643       0.78819439      16.49083125      -0.00891607       0.00773079      -0.01357748
O        1.97043419       1.97038596      10.37227001      -0.07026851       0.16617605       0.13564112
O        1.57644658       2.75861683      14.53421302       0.39876602      -0.73417542       0.08237712
10
Lattice="3.940949890606662 0.0 0.0 0.0 3.940949890606662 0.0 0.0 0.0 26.940967945119528" Properties=species:S:1:pos:R:3:forces:R:3 tau=tau92 tau_p=9 tau_q=2 stage=B constraint=xy_fixed_z_free force_label=raw_dft energy=-15499.910590687157 free_energy=-15499.910590687157 stress="0.008776668643691558 -0.0005463037810436738 -0.00400133088703921 -0.0005463037810436738 0.008890520187976291 0.007277317258070854 -0.00400133088703921 0.007277317258070854 0.00014323258797111448" pbc="T T T"
Sr       0.00003612       0.00009431      10.68059663       0.00155680      -0.00134134      -0.06828104
Sr       3.54675692       0.78817596      14.87450706       0.22696285      -0.21636553       0.05537411
Ti       1.97047269       1.97057450      12.21673669      -0.29537399       0.44397655       0.05057694
Ti       1.57610576       2.75860075      16.37222744       0.04355397      -0.09201927       0.03314152
O        0.00000902       1.97050521      12.38412607      -0.52182570      -0.36905306      -0.21541139
O        3.54704290       2.75866855      16.51057084      -0.00368388      -0.02099820      -0.02785482
O        1.97049401       3.94093312      12.22460515       0.23717527       0.80807047       0.04769319
O        1.57647643       0.78819439      16.50306190      -0.00874792       0.00743614      -0.03632017
O        1.97043419       1.97038596      10.36494662      -0.06864434       0.16111227       0.10487170
O        1.57644658       2.75861683      14.54394156       0.38902693      -0.72081777       0.05620997
10
Lattice="3.940949890606662 0.0 0.0 0.0 3.940949890606662 0.0 0.0 0.0 26.940967945119528" Properties=species:S:1:pos:R:3:forces:R:3 tau=tau92 tau_p=9 tau_q=2 stage=B constraint=xy_fixed_z_free force_label=raw_dft energy=-15499.913553190518 free_energy=-15499.913553190518 stress="0.009123732222236952 -0.0005123319492812941 -0.003969195370507229 -0.0005123319492812941 0.009377143724032 0.007236000165386879 -0.003969195370507229 0.007236000165386879 0.00046642406852132143" pbc="T T T"
Sr       0.00003612       0.00009431      10.66620041       0.00108218      -0.00061398       0.01810725
Sr       3.54675692       0.78817596      14.87605843       0.22679830      -0.21580606       0.08490837
Ti       1.97047269       1.97057450      12.21466393      -0.29761419       0.44585114       0.00536718
Ti       1.57610576       2.75860075      16.38242019       0.04333594      -0.09243193      -0.01135708
O        0.00000902       1.97050521      12.36855711      -0.50452449      -0.36191079      -0.13601496
O        3.54704290       2.75866855      16.51796997      -0.00352010      -0.01963140      -0.02469133
O        1.97049401       3.94093312      12.22270067       0.23495049       0.79562787       0.05243328
O        1.57647643       0.78819439      16.51025722      -0.00851858       0.00719266      -0.03154409
O        1.97043419       1.97038596      10.36367996      -0.06858880       0.15782125       0.02512739
O        1.57644658       2.75861683      14.55281207       0.37659925      -0.71609877       0.01766374
10
Lattice="3.940949890606662 0.0 0.0 0.0 3.940949890606662 0.0 0.0 0.0 26.940967945119528" Properties=species:S:1:pos:R:3:forces:R:3 tau=tau92 tau_p=9 tau_q=2 stage=B constraint=xy_fixed_z_free force_label=raw_dft energy=-15499.914751851979 free_energy=-15499.914751851979 stress="0.008970399900498643 -0.0004985595850533022 -0.003940732484436047 -0.0004985595850533022 0.009371634778340803 0.007224064116389286 -0.003940732484436047 0.007224064116389286 0.0002855470183270295" pbc="T T T"
Sr       0.00003612       0.00009431      10.66264203       0.00091274      -0.00033142       0.04872909
Sr       3.54675692       0.78817596      14.87893510       0.22609176      -0.21506841       0.06311595
Ti       1.97047269       1.97057450      12.21561211      -0.29846780       0.44429460      -0.02726861
Ti       1.57610576       2.75860075      16.38454635       0.04269034      -0.09231315      -0.02310213
O        0.00000902       1.97050521      12.35846535      -0.49455966      -0.35800606      -0.06658874
O        3.54704290       2.75866855      16.51811732      -0.00344528      -0.01888450      -0.00680108
O        1.97049401       3.94093312      12.22477674       0.23575679       0.79483057       0.05807479
O        1.57647643       0.78819439      16.51003888      -0.00832035       0.00723251      -0.01124498
O        1.97043419       1.97038596      10.36624611      -0.06934445       0.15693499      -0.03111575
O        1.57644658       2.75861683      14.55593997       0.36868591      -0.71868915      -0.00379880
10
Lattice="3.940949890606662 0.0 0.0 0.0 3.940949890606662 0.0 0.0 0.0 26.940967945119528" Properties=species:S:1:pos:R:3:forces:R:3 tau=tau92 tau_p=9 tau_q=2 stage=B constraint=xy_fixed_z_free force_label=raw_dft energy=-15499.915342611124 free_energy=-15499.915342611124 stress="0.008687607355017212 -0.000493968796977305 -0.003908596967904066 -0.000493968796977305 0.009200857461913707 0.007204782806470097 -0.003908596967904066 0.007204782806470097 4.1317092683975326e-05" pbc="T T T"
Sr       0.00003612       0.00009431      10.66360309       0.00091994      -0.00031959       0.04578106
Sr       3.54675692       0.78817596      14.88260928       0.22429276      -0.21293388       0.02564727
Ti       1.97047269       1.97057450      12.21585250      -0.29751906       0.44029859      -0.04031721
Ti       1.57610576       2.75860075      16.38384388       0.04203342      -0.09197350      -0.01647846
O        0.00000902       1.97050521      12.35211224      -0.48833991      -0.35551518      -0.02168546
O        3.54704290       2.75866855      16.51679143      -0.00344168      -0.01842607       0.00821905
O        1.97049401       3.94093312      12.22761925       0.23696727       0.79688874       0.05608013
O        1.57647643       0.78819439      16.50838284      -0.00813368       0.00742869       0.00604441
O        1.97043419       1.97038596      10.36777268      -0.06983913       0.15620506      -0.05245308
O        1.57644658       2.75861683      14.55673278       0.36306008      -0.72165338      -0.01083746
10
Lattice="3.940949890606662 0.0 0.0 0.0 3.940949890606662 0.0 0.0 0.0 26.940967945119528" Properties=species:S:1:pos:R:3:forces:R:3 tau=tau92 tau_p=9 tau_q=2 stage=B constraint=xy_fixed_z_free force_label=raw_dft energy=-15499.915718128219 free_energy=-15499.915718128219 stress="0.008474594788290938 -0.0004930506393621056 -0.0038718706632960877 -0.0004930506393621056 0.009066806450094585 0.0071680565018621195 -0.0038718706632960877 0.0071680565018621195 -6.059840260316382e-05" pbc="T T T"
Sr       0.00003612       0.00009431      10.66509349       0.00100582      -0.00041755       0.03000246
Sr       3.54675692       0.78817596      14.88636547       0.22158975      -0.20964698      -0.00605032
Ti       1.97047269       1.97057450      12.21415527      -0.29533645       0.43505637      -0.03631246
Ti       1.57610576       2.75860075      16.38338032       0.04154363      -0.09174107      -0.00461642
O        0.00000902       1.97050521      12.34742449      -0.48327715      -0.35315979       0.00086132
O        3.54704290       2.75866855      16.51675730      -0.00347536      -0.01802549       0.01402383
O        1.97049401       3.94093312      12.23001791       0.23759513       0.79806502       0.04358817
O        1.57647643       0.78819439      16.50811445      -0.00794497       0.00767011       0.01366721
O        1.97043419       1.97038596      10.36670326      -0.06975969       0.15471845      -0.04624489
O        1.57644658       2.75861683      14.55730799       0.35805954      -0.72251907      -0.00891916
10
Lattice="3.940949890606662 0.0 0.0 0.0 3.940949890606662 0.0 0.0 0.0 26.940967945119528" Properties=species:S:1:pos:R:3:forces:R:3 tau=tau92 tau_p=9 tau_q=2 stage=B constraint=xy_fixed_z_free force_label=raw_dft energy=-15499.915978269051 free_energy=-15499.915978269051 stress="0.008381860869155794 -0.0004912143241317066 -0.0038333080434577106 -0.0004912143241317066 0.009032834618332207 0.007123984936332545 -0.0038333080434577106 0.007123984936332545 5.5089456911967096e-06" pbc="T T T"
Sr       0.00003612       0.00009431      10.66574469       0.00110943      -0.00055202       0.01231816
Sr       3.54675692       0.78817596      14.88949851       0.21849235      -0.20606955      -0.02320858
Ti       1.97047269       1.97057450      12.21078273      -0.29271547       0.42960177      -0.02019833
Ti       1.57610576       2.75860075      16.38409086       0.04125515      -0.09171099       0.00519414
O        0.00000902       1.97050521      12.34338611      -0.47846224      -0.35051027       0.00728676
O        3.54704290       2.75866855      16.51848024      -0.00351598      -0.01762003       0.01067316
O        1.97049401       3.94093312      12.23194049       0.23764964       0.79802311       0.02154122
O        1.57647643       0.78819439      16.50969945      -0.00775316       0.00788866       0.01163707
O        1.97043419       1.97038596      10.36335455      -0.06920844       0.15248107      -0.02244702
O        1.57644658       2.75861683      14.55834233       0.35314822      -0.72153177      -0.00279685
