10
Lattice="3.940949890606662 0.0 0.0 0.0 3.940949890606662 0.0 0.0 0.0 26.940967945119528" Properties=species:S:1:pos:R:3:forces:R:3 tau=tau73 tau_p=7 tau_q=3 stage=A constraint=rigid_scf force_label=raw_dft energy=-15497.667379849294 free_energy=-15497.667379849294 stress="0.013608014014871073 -0.0017830620887173353 -0.008986926737572233 -0.0017830620887173353 0.013260950436325681 0.008984172264726635 -0.008986926737572233 0.008984172264726635 -0.0175854728039151" pbc="T T T"
Sr       0.00003626       0.00009419      10.75260867      -0.00145807       0.00131538       0.52207252
Sr       2.75856679       1.18227078      14.64522241       1.26452741      -1.26268573       4.16644593
Ti       1.97047258       1.97057465      12.38212169      -1.23552280       1.23542870      -3.76064589
Ti       0.78791569       3.15269568      16.28444791       0.06121437      -0.06046386      -0.40821688
O        0.00000906       1.97050529      12.45001441      -0.88823284      -0.67695424      -0.88161559
O        2.75885291       3.15276346      16.39256827      -0.01926708       0.07392899      -0.13390819
O        1.97049386       3.94093294      12.44909065       0.67656857       0.88466569      -0.87459828
O        0.78828653       1.18228930      16.37955485      -0.07571616       0.01716211      -0.09592760
O        1.97043435       1.97038588      10.49176941      -0.15262403       0.15287702       0.39090024
O        0.78825658       3.15271183      14.44792112       0.37051114      -0.36527457       1.07549322
