10
Lattice="3.940949890606662 0.0 0.0 0.0 3.940949890606662 0.0 0.0 0.0 26.940967945119528" Properties=species:S:1:pos:R:3:forces:R:3 tau=tau66 tau_p=6 tau_q=6 stage=B constraint=xy_fixed_z_free force_label=raw_dft energy=-15499.089325951565 free_energy=-15499.089325951565 stress="0.006549218269217689 4.1317092683975326e-05 -0.001227576731521667 4.1317092683975326e-05 0.006985343136437429 -0.0012284948891368665 -0.001227576731521667 -0.0012284948891368665 -0.005109547128584948" pbc="T T T"
Sr       0.00003626       0.00009419      10.47204378       0.00382426       0.00387157      -0.88572756
Sr       2.36447180       2.36455575      15.25736622       0.12111104       0.12180627       0.19308188
Ti       1.97047258       1.97057465      11.79636925      -0.10186531      -0.10240421       0.02395908
Ti       0.39382070       0.39403075      16.68386712       0.00376949       0.00343602       0.32391272
O        0.00000906       1.97050529      11.92655301      -0.12076832       0.08325592       0.42331645
O        2.36475792       0.39409854      16.85601176      -0.00292437      -0.00908216      -0.26920273
O        1.97049386       3.94093294      11.92770928       0.08339322      -0.12119666       0.41662516
O        0.39419154       2.36457427      16.87470920      -0.00843553      -0.00273025      -0.34873286
O        1.97043435       1.97038588      10.01850586      -0.01571947      -0.01547933      -0.29757151
O        0.39416159       0.39404691      14.86218353       0.03761447       0.03852284       0.42033911
10
Lattice="3.940949890606662 0.0 0.0 0.0 3.940949890606662 0.0 0.0 0.0 26.940967945119528" Properties=species:S:1:pos:R:3:forces:R:3 tau=tau66 tau_p=6 tau_q=6 stage=B constraint=xy_fixed_z_free force_label=raw_dft energy=-15499.120607750287 free_energy=-15499.120607750287 stress="0.0072708901547644585 4.0398935068775876e-05 -0.001229413046752066 4.0398935068775876e-05 0.007660188983609026 -0.0012303312043672654 -0.001229413046752066 -0.0012303312043672654 -0.004644041217678827" pbc="T T T"
Sr       0.00003612       0.00009431      10.45381410       0.00312338       0.00317943      -0.69606550
Sr       2.36447194       2.36455593      15.26134014       0.12131982       0.12195822       0.15826297
Ti       1.97047269       1.97057450      11.79686231      -0.10120505      -0.10167582       0.03204494
Ti       0.39382079       0.39403080      16.69053387       0.00389805       0.00347767       0.20010253
O        0.00000902       1.97050521      11.93526570      -0.12041710       0.08226296       0.28853948
O        2.36475793       0.39409860      16.85047116      -0.00296114      -0.00916547      -0.16700626
O        1.97049401       3.94093312      11.93628438       0.08239949      -0.12080997       0.28276633
O        0.39419145       2.36457436      16.86753194      -0.00856126      -0.00270686      -0.23996054
O        1.97043419       1.97038596      10.01238143      -0.01511500      -0.01487692      -0.22498490
O        0.39416160       0.39404688      14.87083494       0.03751882       0.03835675       0.36630095
10
Lattice="3.940949890606662 0.0 0.0 0.0 3.940949890606662 0.0 0.0 0.0 26.940967945119528" Properties=species:S:1:pos:R:3:forces:R:3 tau=tau66 tau_p=6 tau_q=6 stage=B constraint=xy_fixed_z_free force_label=raw_dft energy=-15499.144324240066 free_energy=-15499.144324240066 stress="0.008040306236301599 3.856261983837697e-05 -0.0012303312043672654 3.856261983837697e-05 0.008375433765849398 -0.0012303312043672654 -0.0012303312043672654 -0.0012303312043672654 -0.004251069758373462" pbc="T T T"
Sr       0.00003612       0.00009431      10.43376132       0.00238753       0.00245000      -0.50340169
Sr       2.36447194       2.36455593      15.26589458       0.12149568       0.12205927       0.13197318
Ti       1.97047269       1.97057450      11.79777553      -0.10040158      -0.10082555       0.02317001
Ti       0.39382079       0.39403080      16.69633962       0.00404717       0.00357229       0.14239618
O        0.00000902       1.97050521      11.94361143      -0.11979695       0.08102600       0.15888492
O        2.36475793       0.39409860      16.84562633      -0.00305653      -0.00931434      -0.07462190
O        1.97049401       3.94093312      11.94446418       0.08116947      -0.12015048       0.15420731
O        0.39419145       2.36457436      16.86059327      -0.00875538      -0.00272845      -0.13913808
O        1.97043419       1.97038596      10.00589322      -0.01451053      -0.01427065      -0.14760960
O        0.39416160       0.39404688      14.88136049       0.03742138       0.03818165       0.25413966
10
Lattice="3.940949890606662 0.0 0.0 0.0 3.940949890606662 0.0 0.0 0.0 26.940967945119528" Properties=species:S:1:pos:R:3:forces:R:3 tau=tau66 tau_p=6 tau_q=6 stage=B constraint=xy_fixed_z_free force_label=raw_dft energy=-15499.162959820247 free_energy=-15499.162959820247 stress="0.009022734884565013 3.580814699277862e-05 -0.0012312493619824649 3.580814699277862e-05 0.009267882967823266 -0.0012303312043672654 -0.0012312493619824649 -0.0012303312043672654 -0.00378464568985214" pbc="T T T"
Sr       0.00003612       0.00009431      10.40368216       0.00138325       0.00144985      -0.23618848
Sr       2.36447194       2.36455593      15.27347088       0.12148231       0.12191631       0.08915763
Ti       1.97047269       1.97057450      11.79913720      -0.09920473      -0.09954823       0.00351161
Ti       0.39382079       0.39403080      16.70498173       0.00425826       0.00372013       0.07181040
O        0.00000902       1.97050521      11.95402865      -0.11857851       0.07907119      -0.00805424
O        2.36475793       0.39409860      16.84030504      -0.00317865      -0.00948171       0.05111842
O        1.97049401       3.94093312      11.95461133       0.07922674      -0.11885824      -0.01112953
O        0.39419145       2.36457436      16.85163513      -0.00901506      -0.00275057       0.00172855
O        1.97043419       1.97038596       9.99680097      -0.01370321      -0.01345690      -0.05642003
O        0.39416160       0.39404688      14.89666687       0.03732959       0.03793817       0.09446619
10
Lattice="3.940949890606662 0.0 0.0 0.0 3.940949890606662 0.0 0.0 0.0 26.940967945119528" Properties=species:S:1:pos:R:3:forces:R:3 tau=tau66 tau_p=6 tau_q=6 stage=B constraint=xy_fixed_z_free force_label=raw_dft energy=-15499.166896627208 free_energy=-15499.166896627208 stress="0.009601174182140666 3.488998937757916e-05 -0.0012312493619824649 3.488998937757916e-05 0.00977837860187416 -0.0012303312043672654 -0.0012312493619824649 -0.0012303312043672654 -0.0034715539430691267" pbc="T T T"
Sr       0.00003612       0.00009431      10.38401245       0.00077493       0.00085052      -0.08107305
Sr       2.36447194       2.36455593      15.27929623       0.12113907       0.12146945       0.06039239
Ti       1.97047269       1.97057450      11.79978171      -0.09847248      -0.09876636      -0.02302526
Ti       0.39382079       0.39403080      16.71083288       0.00445109       0.00385614       0.03504028
O        0.00000902       1.97050521      11.95821719      -0.11752178       0.07771802      -0.09086407
O        2.36475793       0.39409860      16.83956179      -0.00323059      -0.00950948       0.11487869
O        1.97049401       3.94093312      11.95859534       0.07786714      -0.11772361      -0.09283559
O        0.39419145       2.36457436      16.84790650      -0.00911405      -0.00274080       0.07828032
O        1.97043419       1.97038596       9.99126183      -0.01326612      -0.01301724      -0.01618844
O        0.39416160       0.39404688      14.90585404       0.03737278       0.03786335       0.01539474
10
Lattice="3.940949890606662 0.0 0.0 0.0 3.940949890606662 0.0 0.0 0.0 26.940967945119528" Properties=species:S:1:pos:R:3:forces:R:3 tau=tau66 tau_p=6 tau_q=6 stage=B constraint=xy_fixed_z_free force_label=raw_dft energy=-15499.168178963673 free_energy=-15499.168178963673 stress="0.009786642020410956 3.397183176237971e-05 -0.001229413046752066 3.397183176237971e-05 0.009928038293151671 -0.0012284948891368665 -0.001229413046752066 -0.0012284948891368665 -0.0033485208226324004" pbc="T T T"
Sr       0.00003612       0.00009431      10.37671497       0.00057361       0.00064535      -0.03563395
Sr       2.36447194       2.36455593      15.28228534       0.12064953       0.12092155       0.05160641
Ti       1.97047269       1.97057450      11.79937707      -0.09813489      -0.09841360      -0.04111554
Ti       0.39382079       0.39403080      16.71331924       0.00448992       0.00388442       0.03071928
O        0.00000902       1.97050521      11.95733399      -0.11683196       0.07711021      -0.10372704
O        2.36475793       0.39409860      16.84196691      -0.00322776      -0.00944083       0.12060531
O        1.97049401       3.94093312      11.95761088       0.07724905      -0.11698597      -0.10517149
O        0.39419145       2.36457436      16.84865900      -0.00908396      -0.00272048       0.09118752
O        1.97043419       1.97038596       9.98931790      -0.01315351      -0.01290308      -0.01610385
O        0.39416160       0.39404688      14.90873468       0.03746971       0.03790217       0.00763361
10
Lattice="3.940949890606662 0.0 0.0 0.0 3.940949890606662 0.0 0.0 0.0 26.940967945119528" Properties=species:S:1:pos:R:3:forces:R:3 tau=tau66 tau_p=6 tau_q=6 stage=B constraint=xy_fixed_z_free force_label=raw_dft energy=-15499.170007296554 free_energy=-15499.170007296554 stress="0.009968437228220446 3.305367414718026e-05 -0.001227576731521667 3.305367414718026e-05 0.010063007462585991 -0.0012257404162912679 -0.001227576731521667 -0.0012257404162912679 -0.0032190605988892777" pbc="T T T"
Sr       0.00003612       0.00009431      10.36868775       0.00036407       0.00043657       0.00688799
Sr       2.36447194       2.36455593      15.28620072       0.11978461       0.11998619       0.04280038
Ti       1.97047269       1.97057450      11.79818356      -0.09762016      -0.09788087      -0.06146248
Ti       0.39382079       0.39403080      16.71644887       0.00454031       0.00391888       0.03184954
O        0.00000902       1.97050521      11.95475808      -0.11583000       0.07631394      -0.10822493
O        2.36475793       0.39409860      16.84637222      -0.00321619      -0.00931691       0.11635810
O        1.97049401       3.94093312      11.95490891       0.07643967      -0.11591844      -0.10903226
O        0.39419145       2.36457436      16.85090896      -0.00900915      -0.00269040       0.09637780
O        1.97043419       1.97038596       9.98698173      -0.01304244      -0.01279767      -0.02483506
O        0.39416160       0.39404688      14.91186917       0.03758927       0.03794897       0.00928091
10
Lattice="3.940949890606662 0.0 0.0 0.0 3.940949890606662 0.0 0.0 0.0 26.940967945119528" Properties=species:S:1:pos:R:3:forces:R:3 tau=tau66 tau_p=6 tau_q=6 stage=B constraint=xy_fixed_z_free force_label=raw_dft energy=-15499.173114836593 free_energy=-15499.173114836593 stress="0.010219094257169896 3.305367414718026e-05 -0.0012211496282152708 3.305367414718026e-05 0.010237457409473887 -0.0012183951553696724 -0.0012211496282152708 -0.0012183951553696724 -0.0030198203963909963" pbc="T T T"
Sr       0.00003612       0.00009431      10.35664691       0.00009333       0.00016378       0.06016047
Sr       2.36447194       2.36455593      15.29285726       0.11807868       0.11816430       0.03159217
Ti       1.97047269       1.97057450      11.79526660      -0.09663337      -0.09685448      -0.09169634
Ti       0.39382079       0.39403080      16.72184799       0.00462721       0.00399652       0.03935639
O        0.00000902       1.97050521      11.94913304      -0.11401094       0.07491835      -0.10633209
O        2.36475793       0.39409860      16.85487036      -0.00319022      -0.00907882       0.10063581
O        1.97049401       3.94093312      11.94908156       0.07503199      -0.11399834      -0.10613694
O        0.39419145       2.36457436      16.85584623      -0.00884537      -0.00264207       0.09634695
O        1.97043419       1.97038596       9.98287406      -0.01287634      -0.01263671      -0.04466289
O        0.39416160       0.39404688      14.91689594       0.03772503       0.03796748       0.02073672
10
Lattice="3.940949890606662 0.0 0.0 0.0 3.940949890606662 0.0 0.0 0.0 26.940967945119528" Properties=species:S:1:pos:R:3:forces:R:3 tau=tau66 tau_p=6 tau_q=6 stage=B constraint=xy_fixed_z_free force_label=raw_dft energy=-15499.17782077332 free_energy=-15499.17782077332 stress="0.010560648890024093 3.1217358916781356e-05 -0.001207377263987279 3.1217358916781356e-05 0.010458733394736955 -0.0012037046335264812 -0.001207377263987279 -0.0012037046335264812 -0.0027186646986055766" pbc="T T T"
Sr       0.00003612       0.00009431      10.33858566      -0.00023963      -0.00016892       0.12652604
Sr       2.36447194       2.36455593      15.30390113       0.11497022       0.11489309       0.01676462
Ti       1.97047269       1.97057450      11.78910885      -0.09477163      -0.09493258      -0.13296460
Ti       0.39382079       0.39403080      16.73117380       0.00469895       0.00403637       0.05471050
O        0.00000902       1.97050521      11.93863960      -0.11086648       0.07255473      -0.09603147
O        2.36475793       0.39409860      16.86973878      -0.00311952      -0.00866642       0.06953394
O        1.97049401       3.94093312      11.93827538       0.07265192      -0.11070656      -0.09433069
O        0.39419145       2.36457436      16.86509019      -0.00853786      -0.00253588       0.09006523
O        1.97043419       1.97038596       9.97547585      -0.01260406      -0.01236572      -0.07817619
O        0.39416160       0.39404688      14.92533073       0.03781784       0.03789163       0.04390261
10
Lattice="3.940949890606662 0.0 0.0 0.0 3.940949890606662 0.0 0.0 0.0 26.940967945119528" Properties=species:S:1:pos:R:3:forces:R:3 tau=tau66 tau_p=6 tau_q=6 stage=B constraint=xy_fixed_z_free force_label=raw_dft energy=-15499.18429667451 free_energy=-15499.18429667451 stress="0.011005037175780627 2.9381043686382456e-05 -0.001178914377916096 2.9381043686382456e-05 0.0107158175269928 -0.0011743235898400988 -0.001178914377916096 -0.0011743235898400988 -0.0022770308856946402" pbc="T T T"
Sr       0.00003612       0.00009431      10.31149378      -0.00061578      -0.00054662       0.20675706
Sr       2.36447194       2.36455593      15.32202354       0.10963621       0.10933668      -0.00233533
Ti       1.97047269       1.97057450      11.77696107      -0.09133561      -0.09141172      -0.18558171
Ti       0.39382079       0.39403080      16.74730222       0.00479176       0.00411814       0.07889790
O        0.00000902       1.97050521      11.92020723      -0.10562889       0.06862531      -0.07466535
O        2.36475793       0.39409860      16.89468077      -0.00299791      -0.00806632       0.01744236
O        1.97049401       3.94093312      11.91937172       0.06870528      -0.10526225      -0.07078864
O        0.39419145       2.36457436      16.88140707      -0.00807481      -0.00237776       0.07601209
O        1.97043419       1.97038596       9.96205972      -0.01211915      -0.01188827      -0.12700478
O        0.39416160       0.39404688      14.93981283       0.03763889       0.03747280       0.08126691
10
Lattice="3.940949890606662 0.0 0.0 0.0 3.940949890606662 0.0 0.0 0.0 26.940967945119528" Properties=species:S:1:pos:R:3:forces:R:3 tau=tau66 tau_p=6 tau_q=6 stage=B constraint=xy_fixed_z_free force_label=raw_dft energy=-15499.192437640275 free_energy=-15499.192437640275 stress="0.011559604375361097 2.570841322558465e-05 -0.0011256612362345278 2.570841322558465e-05 0.010992182969167836 -0.0011192341329281316 -0.0011256612362345278 -0.0011192341329281316 -0.0016471747616678164" pbc="T T T"
Sr       0.00003612       0.00009431      10.27146664      -0.00107755      -0.00100376       0.29168291
Sr       2.36447194       2.36455593      15.35141281       0.10084329       0.10029462      -0.02390509
Ti       1.97047269       1.97057450      11.75380795      -0.08543107      -0.08546295      -0.24420081
Ti       0.39382079       0.39403080      16.77510594       0.00489075       0.00415439       0.11171315
O        0.00000902       1.97050521      11.88884215      -0.09720030       0.06245390      -0.03919981
O        2.36475793       0.39409860      16.93531859      -0.00275339      -0.00707593      -0.06103953
O        1.97049401       3.94093312      11.88732399       0.06251483      -0.09656806      -0.03234011
O        0.39419145       2.36457436      16.90936205      -0.00729011      -0.00208465       0.05317067
O        1.97043419       1.97038596       9.93777970      -0.01126657      -0.01103183      -0.18957104
O        0.39416160       0.39404688      14.96490016       0.03677037       0.03632429       0.13368965
10
Lattice="3.940949890606662 0.0 0.0 0.0 3.940949890606662 0.0 0.0 0.0 26.940967945119528" Properties=species:S:1:pos:R:3:forces:R:3 tau=tau66 tau_p=6 tau_q=6 stage=B constraint=xy_fixed_z_free force_label=raw_dft energy=-15499.201512092566 free_energy=-15499.201512092566 stress="0.012053573172338402 1.9281309919188485e-05 -0.001044863366096976 1.9281309919188485e-05 0.011162042127979735 -0.0010356817899449815 -0.001044863366096976 -0.0010356817899449815 -0.0009521294469618315" pbc="T T T"
Sr       0.00003612       0.00009431      10.22345140      -0.00123053      -0.00117037       0.33940207
Sr       2.36447194       2.36455593      15.39087993       0.08933375       0.08856319      -0.03820248
Ti       1.97047269       1.97057450      11.71729372      -0.07725111      -0.07716138      -0.27927168
Ti       0.39382079       0.39403080      16.81532056       0.00447346       0.00381423       0.13624147
O        0.00000902       1.97050521      11.84510840      -0.08629959       0.05466011       0.00240218
O        2.36475793       0.39409860      16.98915900      -0.00242378      -0.00581018      -0.14752990
O        1.97049401       3.94093312      11.84282442       0.05471539      -0.08549252       0.01245365
O        0.39419145       2.36457436      16.94877266      -0.00610791      -0.00172470       0.02916274
O        1.97043419       1.97038596       9.90077830      -0.00996997      -0.00974397      -0.23854798
O        0.39416160       0.39404688      15.00173157       0.03476080       0.03406557       0.18389044
10
Lattice="3.940949890606662 0.0 0.0 0.0 3.940949890606662 0.0 0.0 0.0 26.940967945119528" Properties=species:S:1:pos:R:3:forces:R:3 tau=tau66 tau_p=6 tau_q=6 stage=B constraint=xy_fixed_z_free force_label=raw_dft energy=-15499.213326595156 free_energy=-15499.213326595156 stress="0.012297803097981458 1.3772364227991774e-05 -0.000941111555579438 1.3772364227991774e-05 0.011124397665756557 -0.0009310118218122439 -0.000941111555579438 -0.0009310118218122439 -0.00039205330169016586" pbc="T T T"
Sr       0.00003612       0.00009431      10.17551798      -0.00100864      -0.00093460       0.31071679
Sr       2.36447194       2.36455593      15.43622217       0.07683433       0.07598973      -0.03330350
Ti       1.97047269       1.97057450      11.66825633      -0.06753362      -0.06738321      -0.26875767
Ti       0.39382079       0.39403080      16.86541733       0.00409422       0.00340337       0.14426486
O        0.00000902       1.97050521      11.79347443      -0.07466046       0.04631097       0.03433528
O        2.36475793       0.39409860      17.04873943      -0.00207051      -0.00468995      -0.21191444
O        1.97049401       3.94093312      11.79055464       0.04635365      -0.07375698       0.04701828
O        0.39419145       2.36457436      16.99613833      -0.00501314      -0.00139534       0.01587451
O        1.97043419       1.97038596       9.85213850      -0.00853246      -0.00832009      -0.24078613
O        0.39416160       0.39404688      15.04886082       0.03153664       0.03077636       0.20255202
10
Lattice="3.940949890606662 0.0 0.0 0.0 3.940949890606662 0.0 0.0 0.0 26.940967945119528" Properties=species:S:1:pos:R:3:forces:R:3 tau=tau66 tau_p=6 tau_q=6 stage=B constraint=xy_fixed_z_free force_label=raw_dft energy=-15499.227316783945 free_energy=-15499.227316783945 stress="0.012262913108603876 6.427103306396162e-06 -0.0008180784351427114 6.427103306396162e-06 0.010882004055343902 -0.0008079787013755176 -0.0008180784351427114 -0.0008079787013755176 -1.8363152303989035e-05" pbc="T T T"
Sr       0.00003612       0.00009431      10.12530097      -0.00081992      -0.00076542       0.21202422
Sr       2.36447194       2.36455593      15.48928585       0.06331984       0.06250275      -0.01086060
Ti       1.97047269       1.97057450      11.60470709      -0.05681778      -0.05669000      -0.19898024
Ti       0.39382079       0.39403080      16.92773236       0.00418576       0.00361780       0.11755161
O        0.00000902       1.97050521      11.73299447      -0.06234951       0.03788829       0.04676374
O        2.36475793       0.39409860      17.11427791      -0.00172572      -0.00365611      -0.23979522
O        1.97049401       3.94093312      11.72963217       0.03793431      -0.06149307       0.06142828
O        0.39419145       2.36457436      17.05283269      -0.00390422      -0.00110429       0.02285531
O        1.97043419       1.97038596       9.78966900      -0.00697000      -0.00674220      -0.19372388
O        0.39416160       0.39404688      15.10888746       0.02714725       0.02644225       0.18273679
10
Lattice="3.940949890606662 0.0 0.0 0.0 3.940949890606662 0.0 0.0 0.0 26.940967945119528" Properties=species:S:1:pos:R:3:forces:R:3 tau=tau66 tau_p=6 tau_q=6 stage=B constraint=xy_fixed_z_free force_label=raw_dft energy=-15499.24087635258 free_energy=-15499.24087635258 stress="0.011861678230761716 0.0 -0.0006601553253284058 0.0 0.010404562095440188 -0.0006509737491764112 -0.0006601553253284058 -0.0006509737491764112 0.00016435021312070184" pbc="T T T"
Sr       0.00003612       0.00009431      10.06229673      -0.00038798      -0.00032036       0.02269641
Sr       2.36447194       2.36455593      15.56158755       0.04819276       0.04756438       0.03886531
Ti       1.97047269       1.97057450      11.51273214      -0.04414147      -0.04412039      -0.05409910
Ti       0.39382079       0.39403080      17.01596376       0.00423589       0.00368568       0.04146161
O        0.00000902       1.97050521      11.65217131      -0.04818787       0.02853925       0.02821734
O        2.36475793       0.39409860      17.19553425      -0.00145087      -0.00264104      -0.20798630
O        1.97049401       3.94093312      11.64870918       0.02860327      -0.04746436       0.04359820
O        0.39419145       2.36457436      17.13102238      -0.00275211      -0.00088343       0.06244567
O        1.97043419       1.97038596       9.69894892      -0.00519671      -0.00495966      -0.06794989
O        0.39416160       0.39404688      15.19635375       0.02108485       0.02059994       0.09275049
10
Lattice="3.940949890606662 0.0 0.0 0.0 3.940949890606662 0.0 0.0 0.0 26.940967945119528" Properties=species:S:1:pos:R:3:forces:R:3 tau=tau66 tau_p=6 tau_q=6 stage=B constraint=xy_fixed_z_free force_label=raw_dft energy=-15499.243843345821 free_energy=-15499.243843345821 stress="0.011565113321052293 -9.181576151994517e-07 -0.0006041477108012392 -9.181576151994517e-07 0.010240211882319484 -0.0005968024498796435 -0.0006041477108012392 -0.0005968024498796435 0.00011568785951513091" pbc="T T T"
Sr       0.00003612       0.00009431      10.03792147      -0.00028642      -0.00020440      -0.04410907
Sr       2.36447194       2.36455593      15.59012017       0.04323310       0.04272402       0.05283771
Ti       1.97047269       1.97057450      11.47687015      -0.03914453      -0.03920007       0.01296582
Ti       0.39382079       0.39403080      17.05041185       0.00315809       0.00267549       0.00145936
O        0.00000902       1.97050521      11.62283541      -0.04341770       0.02556319       0.00176301
O        2.36475793       0.39409860      17.22069090      -0.00128092      -0.00235205      -0.15462949
O        1.97049401       3.94093312      11.61971895       0.02563390      -0.04284281       0.01575341
O        0.39419145       2.36457436      17.16177517      -0.00241889      -0.00076259       0.09124151
O        1.97043419       1.97038596       9.66284581      -0.00457785      -0.00433848      -0.00167585
O        0.39416160       0.39404688      15.23213008       0.01910073       0.01873794       0.02439360
10
Lattice="3.940949890606662 0.0 0.0 0.0 3.940949890606662 0.0 0.0 0.0 26.940967945119528" Properties=species:S:1:pos:R:3:forces:R:3 tau=tau66 tau_p=6 tau_q=6 stage=B constraint=xy_fixed_z_free force_label=raw_dft energy=-15499.245127451026 free_energy=-15499.245127451026 stress="0.011347509966250023 -9.181576151994517e-07 -0.0005747666671148567 -9.181576151994517e-07 0.01023194846378269 -0.0005683395638084606 -0.0005747666671148567 -0.0005683395638084606 7.804339729195339e-05" pbc="T T T"
Sr       0.00003612       0.00009431      10.02270744      -0.00028154      -0.00020157      -0.06014402
Sr       2.36447194       2.36455593      15.60689145       0.04069722       0.04030358       0.04835294
Ti       1.97047269       1.97057450      11.45836770      -0.03663539      -0.03679069       0.04461224
Ti       0.39382079       0.39403080      17.06887324       0.00269040       0.00212682      -0.02558633
O        0.00000902       1.97050521      11.60753846      -0.04104355       0.02404856      -0.01822346
O        2.36475793       0.39409860      17.23020917      -0.00120688      -0.00218827      -0.10245306
O        1.97049401       3.94093312      11.60494466       0.02411386      -0.04056969      -0.00656943
O        0.39419145       2.36457436      17.18025237      -0.00227028      -0.00069188       0.10622204
O        1.97043419       1.97038596       9.64354919      -0.00421044      -0.00395307       0.03357681
O        0.39416160       0.39404688      15.25198628       0.01814633       0.01791596      -0.01978772
10
Lattice="3.940949890606662 0.0 0.0 0.0 3.940949890606662 0.0 0.0 0.0 26.940967945119528" Properties=species:S:1:pos:R:3:forces:R:3 tau=tau66 tau_p=6 tau_q=6 stage=B constraint=xy_fixed_z_free force_label=raw_dft energy=-15499.246416590337 free_energy=-15499.246416590337 stress="0.011108788986298166 -1.8363152303989035e-06 -0.0005600761452716655 -1.8363152303989035e-06 0.010327436855763433 -0.0005554853571956682 -0.0005600761452716655 -0.0005554853571956682 1.8363152303989035e-05" pbc="T T T"
Sr       0.00003612       0.00009431      10.01347484      -0.00027742      -0.00020260      -0.04741654
Sr       2.36447194       2.36455593      15.61672321       0.03947338       0.03922012       0.02843820
Ti       1.97047269       1.97057450      11.45081305      -0.03569205      -0.03588000       0.04588288
Ti       0.39382079       0.39403080      17.07705190       0.00259399       0.00203117      -0.03673849
O        0.00000902       1.97050521      11.60073880      -0.03985544       0.02333893      -0.03038273
O        2.36475793       0.39409860      17.22811603      -0.00118965      -0.00214044      -0.04324904
O        1.97049401       3.94093312      11.59897215       0.02342866      -0.03952505      -0.02247915
O        0.39419145       2.36457436      17.19276090      -0.00214327      -0.00067543       0.10518254
O        1.97043419       1.97038596       9.63484164      -0.00404512      -0.00379135       0.05126728
O        0.39416160       0.39404688      15.26182744       0.01770719       0.01762466      -0.05050521
10
Lattice="3.940949890606662 0.0 0.0 0.0 3.940949890606662 0.0 0.0 0.0 26.940967945119528" Properties=species:S:1:pos:R:3:forces:R:3 tau=tau66 tau_p=6 tau_q=6 stage=B constraint=xy_fixed_z_free force_label=raw_dft energy=-15499.247679878832 free_energy=-15499.247679878832 stress="0.010823241967971136 -9.181576151994517e-07 -0.0005527308843500699 -9.181576151994517e-07 0.01051749548210972 -0.0005490582538892722 -0.0005527308843500699 -0.0005490582538892722 -4.774419599037149e-05" pbc="T T T"
Sr       0.00003612       0.00009431      10.00557894      -0.00030339      -0.00023037      -0.01565468
Sr       2.36447194       2.36455593      15.62468967       0.03866245       0.03860743      -0.00491518
Ti       1.97047269       1.97057450      11.44828116      -0.03522463      -0.03543623       0.02583290
Ti       0.39382079       0.39403080      17.08049766       0.00258319       0.00205920      -0.03154538
O        0.00000902       1.97050521      11.59617562      -0.03907460       0.02292267      -0.02884803
O        2.36475793       0.39409860      17.22030684      -0.00117654      -0.00216615       0.01755035
O        1.97049401       3.94093312      11.59559246       0.02303863      -0.03893627      -0.02623502
O        0.39419145       2.36457436      17.20620026      -0.00201960      -0.00070217       0.07724057
O        1.97043419       1.97038596       9.63142805      -0.00397544      -0.00372373       0.04358457
O        0.39416160       0.39404688      15.26656930       0.01749044       0.01760563      -0.05701010
10
Lattice="3.940949890606662 0.0 0.0 0.0 3.940949890606662 0.0 0.0 0.0 26.940967945119528" Properties=species:S:1:pos:R:3:forces:R:3 tau=tau66 tau_p=6 tau_q=6 stage=B constraint=xy_fixed_z_free force_label=raw_dft energy=-15499.248201385004 free_energy=-15499.248201385004 stress="0.010713063054147202 -9.181576151994517e-07 -0.000550894569119671 -9.181576151994517e-07 0.010646955705852841 -0.0005490582538892722 -0.000550894569119671 -0.0005490582538892722 -4.5907880759972583e-05" pbc="T T T"
Sr       0.00003612       0.00009431      10.00230145      -0.00032319      -0.00025145       0.00156220
Sr       2.36447194       2.36455593      15.62762709       0.03841228       0.03845728      -0.01916320
Ti       1.97047269       1.97057450      11.44858932      -0.03516164      -0.03538635       0.00548391
Ti       0.39382079       0.39403080      17.08043489       0.00256776       0.00206974      -0.01457404
O        0.00000902       1.97050521      11.59348291      -0.03884166       0.02283165      -0.01350626
O        2.36475793       0.39409860      17.21721896      -0.00116240      -0.00218338       0.02740102
O        1.97049401       3.94093312      11.59349053       0.02295738      -0.03879383      -0.01351089
O        0.39419145       2.36457436      17.21400995      -0.00195944      -0.00072299       0.04101707
O        1.97043419       1.97038596       9.63200769      -0.00398701      -0.00373916       0.01853483
O        0.39416160       0.39404688      15.26615720       0.01749739       0.01771850      -0.03324514
10
Lattice="3.940949890606662 0.0 0.0 0.0 3.940949890606662 0.0 0.0 0.0 26.940967945119528" Properties=species:S:1:pos:R:3:forces:R:3 tau=tau66 tau_p=6 tau_q=6 stage=B constraint=xy_fixed_z_free force_label=raw_dft energy=-15499.248377850827 free_energy=-15499.248377850827 stress="0.010708472266071205 -9.181576151994517e-07 -0.0005490582538892722 -9.181576151994517e-07 0.010713063054147202 -0.0005463037810436738 -0.0005490582538892722 -0.0005463037810436738 2.7544728455983548e-06" pbc="T T T"
Sr       0.00003612       0.00009431       9.99946527      -0.00031959      -0.00024863       0.00313495
Sr       2.36447194       2.36455593      15.63002470       0.03809989       0.03817703      -0.01707984
Ti       1.97047269       1.97057450      11.44673592      -0.03504388      -0.03527039      -0.00392068
Ti       0.39382079       0.39403080      17.08210451       0.00256339       0.00207437      -0.00052528
O        0.00000902       1.97050521      11.58960982      -0.03855652       0.02269127       0.00087726
O        2.36475793       0.39409860      17.21995291      -0.00114003      -0.00215098       0.01310800
O        1.97049401       3.94093312      11.58977601       0.02281828      -0.03853338       0.00018101
O        0.39419145       2.36457436      17.21999976      -0.00190185      -0.00072197       0.01292082
O        1.97043419       1.97038596       9.63078363      -0.00397878      -0.00372964      -0.00088343
O        0.39416160       0.39404688      15.26686744       0.01745882       0.01771233      -0.00781281
