10
Lattice="3.940949890606662 0.0 0.0 0.0 3.940949890606662 0.0 0.0 0.0 26.940967945119528" Properties=species:S:1:pos:R:3:forces:R:3 tau=tau26 tau_p=2 tau_q=6 stage=A constraint=rigid_scf force_label=raw_dft energy=-15497.436349621943 free_energy=-15497.436349621943 stress="0.007537155863172299 -0.0013102109168896176 0.003261295849188452 -0.0013102109168896176 0.019017798683626245 -0.00931195453335284 0.003261295849188452 -0.00931195453335284 -0.02336619314921085" pbc="T T T"
Sr       0.00003626       0.00009419      10.75260867      -0.01069065      -0.00874355       0.47658482
Sr       0.78809185       2.36455575      14.64522241      -1.19748153       0.75481547       4.46985822
Ti       1.97047258       1.97057465      12.38212169       1.47161615      -0.55652865      -3.53631457
Ti       2.75839063       0.39403075      16.28444791       0.02259897       0.08891723      -0.22529369
O        0.00000906       1.97050529      12.45001441       0.16110867       0.13774454      -0.89307783
O        0.78837796       0.39409854      16.39256827       0.01647614       0.00174758      -0.08158650
O        1.97049386       3.94093294      12.44909065      -1.12333837      -1.06203453      -2.05583532
O        2.75876148       2.36457427      16.37955485       0.14161765      -0.01386879      -0.20026580
O        1.97043435       1.97038588      10.49176941       0.10082324      -0.14623252       0.38217803
O        2.75873153       0.39404691      14.44792112       0.41726922       0.80418322       1.66375263
