10
Lattice="3.940949890606662 0.0 0.0 0.0 3.940949890606662 0.0 0.0 0.0 26.940967945119528" Properties=species:S:1:pos:R:3:forces:R:3 tau=tau82 tau_p=8 tau_q=2 stage=B constraint=xy_fixed_z_free force_label=raw_dft energy=-15499.05237234805 free_energy=-15499.05237234805 stress="0.010946275088407863 -0.0016471747616678164 -0.010561567047639293 -0.0016471747616678164 0.010631347026394452 0.010554221786717697 -0.010561567047639293 0.010554221786717697 -0.009498340529238328" pbc="T T T"
Sr       0.00003626       0.00009419      10.75260867      -0.00040263       0.00027357       0.29808804
Sr       3.15266178       0.78817579      14.64522241       0.86087244      -0.86055980       2.35164537
Ti       1.97047258       1.97057465      12.38212169      -0.88846809       0.88858019      -1.36636470
Ti       1.18201068       2.75860069      16.28444791       0.09342258      -0.09259905      -0.11089014
O        0.00000906       1.97050529      12.45001441      -1.23127791      -0.52352931      -0.83271475
O        3.15294790       2.75866847      16.39256827      -0.00226463       0.00737572      -0.08656364
O        1.97049386       3.94093294      12.44909065       0.52359179       1.22753412      -0.82751084
O        1.18238152       0.78819431      16.37955485      -0.00741352       0.00024528      -0.04875634
O        1.97043435       1.97038588      10.49176941      -0.21366279       0.21369852       0.25220234
O        1.18235157       2.75861684      14.44792112       0.86560276      -0.86101977       0.37086492
10
Lattice="3.940949890606662 0.0 0.0 0.0 3.940949890606662 0.0 0.0 0.0 26.940967945119528" Properties=species:S:1:pos:R:3:forces:R:3 tau=tau82 tau_p=8 tau_q=2 stage=B constraint=xy_fixed_z_free force_label=raw_dft energy=-15499.21313611547 free_energy=-15499.21313611547 stress="0.009536903149076705 -0.0015498500544566746 -0.009639736801979043 -0.0015498500544566746 0.009256865076440872 0.009632391541057448 -0.009639736801979043 0.009632391541057448 -0.010571666781406487" pbc="T T T"
Sr       0.00003612       0.00009431      10.75874388      -0.00105595       0.00092123       0.30148679
Sr       3.15266193       0.78817596      14.69362360       0.72773121      -0.72739234       1.75767785
Ti       1.97047269       1.97057450      12.35399983      -0.76852408       0.76854490      -0.75728373
Ti       1.18201077       2.75860075      16.28216561       0.08819424      -0.08731826      -0.05005886
O        0.00000902       1.97050521      12.43287576      -1.16901247      -0.53014270      -0.71905296
O        3.15294791       2.75866855      16.39078670      -0.00451614       0.00764389      -0.00564126
O        1.97049401       3.94093312      12.43205904       0.53009462       1.16574049      -0.71460727
O        1.18238144       0.78819439      16.37855132      -0.00769994       0.00265544       0.03435431
O        1.97043419       1.97038596      10.49696014      -0.20487501       0.20494803      -0.18535648
O        1.18235158       2.75861683      14.45555409       0.80966353      -0.80560067       0.33848136
10
Lattice="3.940949890606662 0.0 0.0 0.0 3.940949890606662 0.0 0.0 0.0 26.940967945119528" Properties=species:S:1:pos:R:3:forces:R:3 tau=tau82 tau_p=8 tau_q=2 stage=B constraint=xy_fixed_z_free force_label=raw_dft energy=-15499.337709150523 free_energy=-15499.337709150523 stress="0.007792403680197747 -0.0014332440373263442 -0.008762896279463566 -0.0014332440373263442 0.007557355330706687 0.00875555101854197 -0.008762896279463566 0.00875555101854197 -0.011308029188796448" pbc="T T T"
Sr       0.00003612       0.00009431      10.76761002      -0.00032936       0.00017072       0.19691385
Sr       3.15266193       0.78817596      14.74686459       0.61359248      -0.61326415       1.14674003
Ti       1.97047269       1.97057450      12.33016879      -0.67090417       0.67080493      -0.42607833
Ti       1.18201077       2.75860075      16.28053832       0.08152660      -0.08055703       0.05189695
O        0.00000902       1.97050521      12.41142209      -1.09587822      -0.52453307      -0.53603721
O        3.15294791       2.75866855      16.39041614      -0.00661339       0.00793031       0.09187683
O        1.97049401       3.94093312      12.41073815       0.52442097       1.09318421      -0.53233457
O        1.18238144       0.78819439      16.37935256      -0.00801207       0.00491955       0.13242827
O        1.97043419       1.97038596      10.49260964      -0.19256071       0.19270701      -0.39661169
O        1.18235158       2.75861683      14.46559965       0.75475736      -0.75136248       0.27120587
10
Lattice="3.940949890606662 0.0 0.0 0.0 3.940949890606662 0.0 0.0 0.0 26.940967945119528" Properties=species:S:1:pos:R:3:forces:R:3 tau=tau82 tau_p=8 tau_q=2 stage=B constraint=xy_fixed_z_free force_label=raw_dft energy=-15499.446845847793 free_energy=-15499.446845847793 stress="0.004928670078390656 -0.0012808298732032352 -0.007604181369081859 -0.0012808298732032352 0.004767992495730753 0.007598672423390663 -0.007604181369081859 0.007598672423390663 -0.01193880347043847" pbc="T T T"
Sr       0.00003612       0.00009431      10.78067496       0.00200597      -0.00219521      -0.05900348
Sr       3.15266193       0.78817596      14.82672608       0.47886282      -0.47863296       0.30129601
Ti       1.97047269       1.97057450      12.29659479      -0.55749795       0.55732672      -0.20654597
Ti       1.18201077       2.75860075      16.28171521       0.07180063      -0.07075984       0.20088749
O        0.00000902       1.97050521      12.37659766      -0.98154846      -0.49730072      -0.24863750
O        3.15294791       2.75866855      16.39388073      -0.00923977       0.00815348       0.25425074
O        1.97049401       3.94093312      12.37614647       0.49722076       0.97979291      -0.24626669
O        1.18238144       0.78819439      16.38517445      -0.00828487       0.00776165       0.29122217
O        1.97043419       1.97038596      10.47511564      -0.17156894       0.17180394      -0.46311276
O        1.18235158       2.75861683      14.48269397       0.67824956      -0.67594996       0.17591025
10
Lattice="3.940949890606662 0.0 0.0 0.0 3.940949890606662 0.0 0.0 0.0 26.940967945119528" Properties=species:S:1:pos:R:3:forces:R:3 tau=tau82 tau_p=8 tau_q=2 stage=B constraint=xy_fixed_z_free force_label=raw_dft energy=-15499.481517232543 free_energy=-15499.481517232543 stress="0.0031162269459869387 -0.0011862596388376916 -0.006900872635839079 -0.0011862596388376916 0.0030097206626238026 0.00689811816299348 -0.006900872635839079 0.00689811816299348 -0.01176802615401137" pbc="T T T"
Sr       0.00003612       0.00009431      10.78530168       0.00380858      -0.00401658      -0.26869776
Sr       3.15266193       0.78817596      14.87890362       0.40531102      -0.40522437      -0.18654690
Ti       1.97047269       1.97057450      12.27058158      -0.49586553       0.49567604      -0.16323651
Ti       1.18201077       2.75860075      16.28836142       0.06649413      -0.06541349       0.27965503
O        0.00000902       1.97050521      12.35071933      -0.90116189      -0.46818246      -0.07511915
O        3.15294791       2.75866855      16.40335552      -0.01059217       0.00802133       0.34889459
O        1.97049401       3.94093312      12.35046266       0.46815778       0.90007920      -0.07379555
O        1.18238144       0.78819439      16.39698819      -0.00816865       0.00932051       0.37801079
O        1.97043419       1.97038596      10.45361328      -0.15520336       0.15550032      -0.37054173
O        1.18235158       2.75861683      14.49703268       0.62721984      -0.62576049       0.13137694
10
Lattice="3.940949890606662 0.0 0.0 0.0 3.940949890606662 0.0 0.0 0.0 26.940967945119528" Properties=species:S:1:pos:R:3:forces:R:3 tau=tau82 tau_p=8 tau_q=2 stage=B constraint=xy_fixed_z_free force_label=raw_dft energy=-15499.502586326787 free_energy=-15499.502586326787 stress="0.0027168283833751776 -0.001123824921004129 -0.0065326914321440985 -0.001123824921004129 0.00264613024700482 0.006531773274528899 -0.0065326914321440985 0.006531773274528899 -0.010909548783799886" pbc="T T T"
Sr       0.00003612       0.00009431      10.78068335       0.00474651      -0.00496609      -0.36842057
Sr       3.15266193       0.78817596      14.90400339       0.36966678      -0.36970484      -0.35520844
Ti       1.97047269       1.97057450      12.25058964      -0.46683109       0.46666139      -0.13786564
Ti       1.18201077       2.75860075      16.29904309       0.06468947      -0.06368828       0.29857681
O        0.00000902       1.97050521      12.33431447      -0.85271433      -0.44687238      -0.01443520
O        3.15294791       2.75866855      16.41740286      -0.01104186       0.00779584       0.35685215
O        1.97049401       3.94093312      12.33419909       0.44688215       0.85208698      -0.01385876
O        1.18238144       0.78819439      16.41304301      -0.00789637       0.00998385       0.37720295
O        1.97043419       1.97038596      10.43359935      -0.14400466       0.14434070      -0.27017023
O        1.18235158       2.75861683      14.50844171       0.59650365      -0.59563667       0.12732746
10
Lattice="3.940949890606662 0.0 0.0 0.0 3.940949890606662 0.0 0.0 0.0 26.940967945119528" Properties=species:S:1:pos:R:3:forces:R:3 tau=tau82 tau_p=8 tau_q=2 stage=B constraint=xy_fixed_z_free force_label=raw_dft energy=-15499.532105236003 free_energy=-15499.532105236003 stress="0.002933513580562248 -0.001044863366096976 -0.0061599194403731215 -0.001044863366096976 0.002906887009721464 0.006160837597988321 -0.0061599194403731215 0.006160837597988321 -0.009381734512107998" pbc="T T T"
Sr       0.00003612       0.00009431      10.76775758       0.00549033      -0.00571299      -0.43776374
Sr       3.15266193       0.78817596      14.92646081       0.33600153      -0.33619873      -0.43110175
Ti       1.97047269       1.97057450      12.22437670      -0.43951903       0.43938842      -0.09257283
Ti       1.18201077       2.75860075      16.31722078       0.06383869      -0.06302982       0.29906609
O        0.00000902       1.97050521      12.31493238      -0.79813290      -0.42069290       0.01385927
O        3.15294791       2.75866855      16.44047530      -0.01122312       0.00753822       0.32052323
O        1.97049401       3.94093312      12.31498897       0.42073995       0.79801129       0.01354020
O        1.18238144       0.78819439      16.43878618      -0.00754567       0.01048110       0.32844943
O        1.97043419       1.97038596      10.40598961      -0.13086452       0.13124402      -0.14890518
O        1.18235158       2.75861683      14.52433167       0.56121474      -0.56102834       0.13490553
10
Lattice="3.940949890606662 0.0 0.0 0.0 3.940949890606662 0.0 0.0 0.0 26.940967945119528" Properties=species:S:1:pos:R:3:forces:R:3 tau=tau82 tau_p=8 tau_q=2 stage=B constraint=xy_fixed_z_free force_label=raw_dft energy=-15499.572608836661 free_energy=-15499.572608836661 stress="0.0038856430275240796 -0.0009310118218122439 -0.005717367469846985 -0.0009310118218122439 0.003924205647362456 0.005720121942692584 -0.005717367469846985 0.005720121942692584 -0.006954125777520647" pbc="T T T"
Sr       0.00003612       0.00009431      10.74131258       0.00614082      -0.00636682      -0.46880569
Sr       3.15266193       0.78817596      14.95002376       0.29976260      -0.30015418      -0.41477036
Ti       1.97047269       1.97057450      12.18664262      -0.40930908       0.40923889      -0.01550992
Ti       1.18201077       2.75860075      16.34815163       0.06329387      -0.06272926       0.27162522
O        0.00000902       1.97050521      12.28798761      -0.72707866      -0.38512786       0.01274213
O        3.15294791       2.75866855      16.47811811      -0.01095778       0.00716489       0.23181889
O        1.97049401       3.94093312      12.28827128       0.38519805       0.72753915       0.01126606
O        1.18238144       0.78819439      16.48020080      -0.00702348       0.01063794       0.22229347
O        1.97043419       1.97038596      10.36537865      -0.11395001       0.11437552      -0.00231476
O        1.18235158       2.75861683      14.54923293       0.51392341      -0.51457827       0.15165446
10
Lattice="3.940949890606662 0.0 0.0 0.0 3.940949890606662 0.0 0.0 0.0 26.940967945119528" Properties=species:S:1:pos:R:3:forces:R:3 tau=tau82 tau_p=8 tau_q=2 stage=B constraint=xy_fixed_z_free force_label=raw_dft energy=-15499.616007184331 free_energy=-15499.616007184331 stress="0.00591109872665407 -0.0007712523967675393 -0.005199526574874495 -0.0007712523967675393 0.006049740526549187 0.005204117362950492 -0.005199526574874495 0.005204117362950492 -0.0034403365841523454" pbc="T T T"
Sr       0.00003612       0.00009431      10.69366047       0.00613080      -0.00635422      -0.42763770
Sr       3.15266193       0.78817596      14.97414533       0.26299814      -0.26361521      -0.26273023
Ti       1.97047269       1.97057450      12.13481941      -0.37436290       0.37439813       0.07412053
Ti       1.18201077       2.75860075      16.39759905       0.06203712      -0.06183735       0.21501647
O        0.00000902       1.97050521      12.25016832      -0.63760633      -0.33933857      -0.02576554
O        3.15294791       2.75866855      16.53531256      -0.01006484       0.00689853       0.08365033
O        1.97049401       3.94093312      12.25072623       0.33941853       0.63864248      -0.02854053
O        1.18238144       0.78819439      16.54232272      -0.00656763       0.01029470       0.05299584
O        1.97043419       1.97038596      10.30869348      -0.09414866       0.09460271       0.14917592
O        1.18235158       2.75861683      14.58787238       0.45216603      -0.45369095       0.16971492
10
Lattice="3.940949890606662 0.0 0.0 0.0 3.940949890606662 0.0 0.0 0.0 26.940967945119528" Properties=species:S:1:pos:R:3:forces:R:3 tau=tau82 tau_p=8 tau_q=2 stage=B constraint=xy_fixed_z_free force_label=raw_dft energy=-15499.638804065395 free_energy=-15499.638804065395 stress="0.00817068461765992 -0.0006234290207204278 -0.004790946436110739 -0.0006234290207204278 0.008401142179074983 0.004796455381801935 -0.004790946436110739 0.004796455381801935 -0.0004177617149157505" pbc="T T T"
Sr       0.00003612       0.00009431      10.63804570       0.00533710      -0.00554613      -0.29777411
Sr       3.15266193       0.78817596      14.99136977       0.23849630      -0.23925426      -0.05165680
Ti       1.97047269       1.97057450      12.08873565      -0.34682125       0.34688501       0.13803764
Ti       1.18201077       2.75860075      16.45001683       0.06063793      -0.06076442       0.12355848
O        0.00000902       1.97050521      12.21312168      -0.56130113      -0.30006625      -0.07157668
O        3.15294791       2.75866855      16.59094816      -0.00895258       0.00677820      -0.04209179
O        1.97049401       3.94093312      12.21386067       0.30012461       0.56260879      -0.07506387
O        1.18238144       0.78819439      16.60174252      -0.00624264       0.00961207      -0.08654179
O        1.97043419       1.97038596      10.25837703      -0.07932033       0.07980396       0.20653415
O        1.18235158       2.75861683      14.62910195       0.39804199      -0.40005671       0.15657478
10
Lattice="3.940949890606662 0.0 0.0 0.0 3.940949890606662 0.0 0.0 0.0 26.940967945119528" Properties=species:S:1:pos:R:3:forces:R:3 tau=tau82 tau_p=8 tau_q=2 stage=B constraint=xy_fixed_z_free force_label=raw_dft energy=-15499.644823767732 free_energy=-15499.644823767732 stress="0.009096187493780968 -0.0005655850909628623 -0.0046890309408236 -0.0005655850909628623 0.009337662946578425 0.004694539886514797 -0.0046890309408236 0.004694539886514797 0.0004012348778421604" pbc="T T T"
Sr       0.00003612       0.00009431      10.61195509       0.00436033      -0.00456551      -0.19109621
Sr       3.15266193       0.78817596      14.99564978       0.23420539      -0.23496849       0.03976571
Ti       1.97047269       1.97057450      12.07654847      -0.34132474       0.34139828       0.12268841
Ti       1.18201077       2.75860075      16.47114866       0.06040524      -0.06058265       0.06201964
O        0.00000902       1.97050521      12.19872406      -0.53502394      -0.28679293      -0.06810158
O        3.15294791       2.75866855      16.60936854      -0.00850572       0.00679517      -0.06028954
O        1.97049401       3.94093312      12.19944248       0.28680964       0.53626861      -0.07138488
O        1.18238144       0.78819439      16.62042768      -0.00621410       0.00920455      -0.10464081
O        1.97043419       1.97038596      10.24511752      -0.07550250       0.07598998       0.15910783
O        1.18235158       2.75861683      14.64693767       0.38079041      -0.38274727       0.11193143
10
Lattice="3.940949890606662 0.0 0.0 0.0 3.940949890606662 0.0 0.0 0.0 26.940967945119528" Properties=species:S:1:pos:R:3:forces:R:3 tau=tau82 tau_p=8 tau_q=2 stage=B constraint=xy_fixed_z_free force_label=raw_dft energy=-15499.648755404529 free_energy=-15499.648755404529 stress="0.009703089677427806 -0.000522431683048488 -0.00465505910906122 -0.000522431683048488 0.009917938559384477 0.004659649897137217 -0.00465505910906122 0.004659649897137217 0.000626183493566026" pbc="T T T"
Sr       0.00003612       0.00009431      10.58997320       0.00324473      -0.00343499      -0.06765935
Sr       3.15266193       0.78817596      14.99871674       0.23434114      -0.23505256       0.09105202
Ti       1.97047269       1.97057450      12.07366948      -0.34133554       0.34142065       0.06486559
Ti       1.18201077       2.75860075      16.48589248       0.06039881      -0.06053740      -0.00109066
O        0.00000902       1.97050521      12.18817786      -0.51723268      -0.27809437      -0.03647136
O        3.15294791       2.75866855      16.61861629      -0.00816300       0.00699237      -0.03866039
O        1.97049401       3.94093312      12.18877344       0.27805761       0.51824081      -0.03906586
O        1.18238144       0.78819439      16.62835167      -0.00643084       0.00875049      -0.07710610
O        1.97043419       1.97038596      10.24203618      -0.07409431       0.07457793       0.06305348
O        1.18235158       2.75861683      14.66111262       0.37121433      -0.37286318       0.04108263
10
Lattice="3.940949890606662 0.0 0.0 0.0 3.940949890606662 0.0 0.0 0.0 26.940967945119528" Properties=species:S:1:pos:R:3:forces:R:3 tau=tau82 tau_p=8 tau_q=2 stage=B constraint=xy_fixed_z_free force_label=raw_dft energy=-15499.649850118503 free_energy=-15499.649850118503 stress="0.00969482625889101 -0.0005132501068964935 -0.004665158842828415 -0.0005132501068964935 0.009869276205778906 0.0046688314732892125 -0.004665158842828415 0.0046688314732892125 0.00037001751892537906" pbc="T T T"
Sr       0.00003612       0.00009431      10.58406805       0.00274080      -0.00292669      -0.01565236
Sr       3.15266193       0.78817596      15.00118796       0.23561744      -0.23625301       0.07284475
Ti       1.97047269       1.97057450      12.07711707      -0.34324741       0.34331452       0.02068838
Ti       1.18201077       2.75860075      16.48764714       0.06023889      -0.06028697      -0.02140058
O        0.00000902       1.97050521      12.18588209      -0.51334903      -0.27642239      -0.00730373
O        3.15294791       2.75866855      16.61731323      -0.00815734       0.00711553      -0.00748268
O        1.97049401       3.94093312      12.18635639       0.27635579       0.51414221      -0.00933696
O        1.18238144       0.78819439      16.62534563      -0.00660542       0.00857643      -0.03935433
O        1.97043419       1.97038596      10.24587759      -0.07453782       0.07501888       0.00485579
O        1.18235158       2.75861683      14.66452482       0.37094411      -0.37227825       0.00214147
10
Lattice="3.940949890606662 0.0 0.0 0.0 3.940949890606662 0.0 0.0 0.0 26.940967945119528" Properties=species:S:1:pos:R:3:forces:R:3 tau=tau82 tau_p=8 tau_q=2 stage=B constraint=xy_fixed_z_free force_label=raw_dft energy=-15499.650152436978 free_energy=-15499.650152436978 stress="0.009524967100079112 -0.0005169227373572913 -0.004670667788519611 -0.0005169227373572913 0.009667281530435027 0.004673422261365209 -0.004670667788519611 0.004673422261365209 0.00012395127805192599" pbc="T T T"
Sr       0.00003612       0.00009431      10.58420665       0.00257959      -0.00276574      -0.00476991
Sr       3.15266193       0.78817596      15.00384775       0.23568788      -0.23626227       0.03673258
Ti       1.97047269       1.97057450      12.07987672      -0.34378375       0.34382848      -0.00077956
Ti       1.18201077       2.75860075      16.48560241       0.05997510      -0.05992367      -0.01713589
O        0.00000902       1.97050521      12.18615644      -0.51334311      -0.27656097       0.00760301
O        3.15294791       2.75866855      16.61473062      -0.00827484       0.00713738       0.01145504
O        1.97049401       3.94093312      12.18654003       0.27647689       0.51397278       0.00597679
O        1.18238144       0.78819439      16.62134305      -0.00667947       0.00855175      -0.01503221
O        1.97043419       1.97038596      10.24889015      -0.07497080       0.07544851      -0.01417423
O        1.18235158       2.75861683      14.66412615       0.37233250      -0.37342651      -0.00987561
10
Lattice="3.940949890606662 0.0 0.0 0.0 3.940949890606662 0.0 0.0 0.0 26.940967945119528" Properties=species:S:1:pos:R:3:forces:R:3 tau=tau82 tau_p=8 tau_q=2 stage=B constraint=xy_fixed_z_free force_label=raw_dft energy=-15499.650233390845 free_energy=-15499.650233390845 stress="0.009440496599480762 -0.0005187590525876902 -0.004659649897137217 -0.0005187590525876902 0.00956169340468709 0.004662404369982815 -0.004659649897137217 0.004662404369982815 6.151656021836326e-05" pbc="T T T"
Sr       0.00003612       0.00009431      10.58436588       0.00255311      -0.00273977      -0.00581506
Sr       3.15266193       0.78817596      15.00623105       0.23463785      -0.23517109       0.01355177
Ti       1.97047269       1.97057450      12.08000321      -0.34278307       0.34281341      -0.00482570
Ti       1.18201077       2.75860075      16.48465264       0.05974704      -0.05963160      -0.00859648
O        0.00000902       1.97050521      12.18610421      -0.51267283      -0.27621104       0.00965655
O        3.15294791       2.75866855      16.61451693      -0.00837228       0.00710499       0.01536183
O        1.97049401       3.94093312      12.18642911       0.27611771       0.51319296       0.00828847
O        1.18238144       0.78819439      16.62016369      -0.00668255       0.00855560      -0.00738832
O        1.97043419       1.97038596      10.24897322      -0.07484558       0.07531790      -0.01247962
O        1.18235158       2.75861683      14.66388002       0.37230037      -0.37323111      -0.00775342
