10
Lattice="3.940949890606662 0.0 0.0 0.0 3.940949890606662 0.0 0.0 0.0 26.940967945119528" Properties=species:S:1:pos:R:3:forces:R:3 tau=tau24 tau_p=2 tau_q=4 stage=A constraint=rigid_scf force_label=raw_dft energy=-15497.436502141749 free_energy=-15497.436502141749 stress="0.0075408284936330965 0.0013102109168896176 0.0032603776915732527 0.0013102109168896176 0.019016880526011044 0.009315627163813636 0.0032603776915732527 0.009315627163813636 -0.02336068420351965" pbc="T T T"
Sr       0.00003626       0.00009419      10.75260867      -0.01071122       0.00862065       0.47692807
Sr       0.78809185       1.57636577      14.64522241      -1.19727687      -0.75517465       4.46863849
Ti       1.97047258       1.97057465      12.38212169       1.47150687       0.55743265      -3.53624952
Ti       2.75839063       3.54679066      16.28444791       0.02257737      -0.08880950      -0.22516076
O        0.00000906       1.97050529      12.45001441       0.16121280      -0.13815360      -0.89295313
O        0.78837796       3.54685845      16.39256827       0.01644220      -0.00171750      -0.08149471
O        1.97049386       3.94093294      12.44909065      -1.12336896       1.06135113      -2.05566588
O        2.75876148       1.57638429      16.37955485       0.14159965       0.01372969      -0.20019201
O        1.97043435       1.97038588      10.49176941       0.10083738       0.14680305       0.38228267
O        2.75873153       3.54680682      14.44792112       0.41718077      -0.80408192       1.66386679
