10
Lattice="3.940949890606662 0.0 0.0 0.0 3.940949890606662 0.0 0.0 0.0 26.940967945119528" Properties=species:S:1:pos:R:3:forces:R:3 tau=tau81 tau_p=8 tau_q=1 stage=B constraint=xy_fixed_z_free force_label=raw_dft energy=-15499.600761598349 free_energy=-15499.600761598349 stress="0.011273139199418867 -0.000892449201973867 -0.013130572054967359 -0.000892449201973867 0.00857467396834768 0.005571380409030273 -0.013130572054967359 0.005571380409030273 -0.006708977694262394" pbc="T T T"
Sr       0.00003626       0.00009419      10.75260867      -0.00053016      -0.00199569       0.19461040
Sr       3.15266178       0.39408080      14.64522241       0.70647847      -0.45173537       1.63866817
Ti       1.97047258       1.97057465      12.38212169      -0.59845640       0.55407839      -0.63553659
Ti       1.18201068       2.36450570      16.28444791       0.12339547      -0.03811789      -0.01547187
O        0.00000906       1.97050529      12.45001441      -1.64884614      -0.40875218      -1.02771750
O        3.15294790       2.36457348      16.39256827       0.00224303       0.00600738      -0.08258460
O        1.97049386       3.94093294      12.44909065       0.27748014       0.67098825      -0.40627852
O        1.18238152       0.39409932      16.37955485       0.04044500      -0.00828975      -0.01118250
O        1.97043435       1.97038588      10.49176941      -0.27086855       0.12779565       0.17293137
O        1.18235157       2.36452185      14.44792112       1.36865915      -0.44997879       0.17256216
10
Lattice="3.940949890606662 0.0 0.0 0.0 3.940949890606662 0.0 0.0 0.0 26.940967945119528" Properties=species:S:1:pos:R:3:forces:R:3 tau=tau81 tau_p=8 tau_q=1 stage=B constraint=xy_fixed_z_free force_label=raw_dft energy=-15499.68162185819 free_energy=-15499.68162185819 stress="0.010242048197549885 -0.0008419505331378973 -0.012282194418523065 -0.0008419505331378973 0.007777713158354555 0.005310623646313629 -0.012282194418523065 0.005310623646313629 -0.0070633865337293815" pbc="T T T"
Sr       0.00003612       0.00009431      10.75661413      -0.00080913      -0.00171133       0.17597787
Sr       3.15266193       0.39408097      14.67894930       0.61191612      -0.40993823       1.26650176
Ti       1.97047269       1.97057450      12.36904152      -0.55799135       0.50435814      -0.46638552
Ti       1.18201077       2.36450576      16.28412948       0.11885233      -0.03786824      -0.04904405
O        0.00000902       1.97050521      12.42886227      -1.54710014      -0.39993175      -0.86462111
O        3.15294791       2.36457356      16.39086860       0.00000566       0.00660285      -0.01705567
O        1.97049401       3.94093312      12.44072873       0.31409650       0.66030017      -0.28607585
O        1.18238144       0.39409940      16.37932465       0.03821045      -0.00689287       0.05376768
O        1.97043419       1.97038596      10.49532861      -0.26516121       0.12526800      -0.02951858
O        1.18235158       2.36452183      14.45147267       1.28798102      -0.44018700       0.21645372
10
Lattice="3.940949890606662 0.0 0.0 0.0 3.940949890606662 0.0 0.0 0.0 26.940967945119528" Properties=species:S:1:pos:R:3:forces:R:3 tau=tau81 tau_p=8 tau_q=1 stage=B constraint=xy_fixed_z_free force_label=raw_dft energy=-15499.750562579497 free_energy=-15499.750562579497 stress="0.00900804436272182 -0.0007914518643019274 -0.011385154428473201 -0.0007914518643019274 0.0068228292385471255 0.005046194253136187 -0.011385154428473201 0.005046194253136187 -0.007505020346640318" pbc="T T T"
Sr       0.00003612       0.00009431      10.76172418      -0.00053736      -0.00172187       0.11515251
Sr       3.15266193       0.39408097      14.71604857       0.52233221      -0.36999871       0.89044784
Ti       1.97047269       1.97057450      12.35533634      -0.52291225       0.45700510      -0.35669608
Ti       1.18201077       2.36450576      16.28275785       0.11241660      -0.03737613       0.00468584
O        0.00000902       1.97050521      12.40365843      -1.43128891      -0.38444549      -0.66480295
O        3.15294791       2.36457356      16.39028700      -0.00246929       0.00733716       0.04487886
O        1.97049401       3.94093312      12.43229983       0.34375598       0.64527027      -0.16268270
O        1.18238144       0.39409940      16.38079025       0.03592885      -0.00515866       0.11305089
O        1.97043419       1.97038596      10.49474998      -0.25657656       0.12095215      -0.16542632
O        1.18235158       2.36452183      14.45766754       1.19935046      -0.43186408       0.18139210
10
Lattice="3.940949890606662 0.0 0.0 0.0 3.940949890606662 0.0 0.0 0.0 26.940967945119528" Properties=species:S:1:pos:R:3:forces:R:3 tau=tau81 tau_p=8 tau_q=1 stage=B constraint=xy_fixed_z_free force_label=raw_dft energy=-15499.817593333772 free_energy=-15499.817593333772 stress="0.0070183968105846095 -0.0007326897769291624 -0.010124524022804353 -0.0007326897769291624 0.005283078917857645 0.0046881127832084 -0.010124524022804353 0.0046881127832084 -0.008076114383294378" pbc="T T T"
Sr       0.00003612       0.00009431      10.76898505       0.00035353      -0.00209365      -0.01702430
Sr       3.15266193       0.39408097      14.77169747       0.40872030      -0.31882939       0.35849457
Ti       1.97047269       1.97057450      12.33353517      -0.47883762       0.39508394      -0.23556601
Ti       1.18201077       2.36450576      16.28239814       0.10247080      -0.03651275       0.09304077
O        0.00000902       1.97050521      12.36361793      -1.26339356      -0.35516216      -0.36511208
O        3.15294791       2.36457356      16.39169174      -0.00563277       0.00829489       0.14270111
O        1.97049401       3.94093312      12.42120297       0.37378415       0.62087796      -0.01483707
O        1.18238144       0.39409940      16.38600068       0.03263321      -0.00255285       0.20139811
O        1.97043419       1.97038596      10.48817171      -0.24142067       0.11264697      -0.28925836
O        1.18235158       2.36452183      14.46801910       1.07132289      -0.42175296       0.12616300
10
Lattice="3.940949890606662 0.0 0.0 0.0 3.940949890606662 0.0 0.0 0.0 26.940967945119528" Properties=species:S:1:pos:R:3:forces:R:3 tau=tau81 tau_p=8 tau_q=1 stage=B constraint=xy_fixed_z_free force_label=raw_dft energy=-15499.847389935163 free_energy=-15499.847389935163 stress="0.005065475563055376 -0.0006904545266299876 -0.008956627536270651 -0.0006904545266299876 0.0038039269997713287 0.004373184721194989 -0.008956627536270651 0.004373184721194989 -0.008297390368557445" pbc="T T T"
Sr       0.00003612       0.00009431      10.77356402       0.00160874      -0.00272717      -0.18362330
Sr       3.15266193       0.39408097      14.82665778       0.31533012      -0.27637508      -0.12163709
Ti       1.97047269       1.97057450      12.30833929      -0.44348367       0.34282241      -0.14011150
Ti       1.18201077       2.36450576      16.28566787       0.09306005      -0.03577227       0.17626172
O        0.00000902       1.97050521      12.32055108      -1.10356221      -0.32045381      -0.07754036
O        3.15294791       2.36457356      16.39776022      -0.00811877       0.00901480       0.23529168
O        1.97049401       3.94093312      12.41206297       0.39013199       0.59530114       0.07515643
O        1.18238144       0.39409940      16.39697510       0.02938642      -0.00001671       0.27639050
O        1.97043419       1.97038596      10.47369251      -0.22343092       0.10223503      -0.32358182
O        1.18235158       2.36452183      14.48004913       0.94907799      -0.41402808       0.08339373
10
Lattice="3.940949890606662 0.0 0.0 0.0 3.940949890606662 0.0 0.0 0.0 26.940967945119528" Properties=species:S:1:pos:R:3:forces:R:3 tau=tau81 tau_p=8 tau_q=1 stage=B constraint=xy_fixed_z_free force_label=raw_dft energy=-15499.85643227802 free_energy=-15499.85643227802 stress="0.004865317202941894 -0.0006803547928627937 -0.008638945001411642 -0.0006803547928627937 0.003780973059391342 0.004297895796748634 -0.008638945001411642 0.004297895796748634 -0.007751086587513771" pbc="T T T"
Sr       0.00003612       0.00009431      10.77056898       0.00197358      -0.00288503      -0.22834121
Sr       3.15266193       0.39408097      14.84027110       0.29252829      -0.26535507      -0.20411011
Ti       1.97047269       1.97057450      12.29758795      -0.43802856       0.33015639      -0.11390167
Ti       1.18201077       2.36450576      16.29067850       0.09120011      -0.03616668       0.18789082
O        0.00000902       1.97050521      12.30625871      -1.05580140      -0.30809683      -0.01450719
O        3.15294791       2.36457356      16.40473308      -0.00848361       0.00921303       0.23588226
O        1.97049401       3.94093312      12.41079606       0.39178958       0.58840004       0.05765287
O        1.18238144       0.39409940      16.40625236       0.02841969       0.00081581       0.26753820
O        1.97043419       1.97038596      10.46286098      -0.21562582       0.09767004      -0.26757548
O        1.18235158       2.36452183      14.48531224       0.91202788      -0.41375195       0.07947126
10
Lattice="3.940949890606662 0.0 0.0 0.0 3.940949890606662 0.0 0.0 0.0 26.940967945119528" Properties=species:S:1:pos:R:3:forces:R:3 tau=tau81 tau_p=8 tau_q=1 stage=B constraint=xy_fixed_z_free force_label=raw_dft energy=-15499.869071285542 free_energy=-15499.869071285542 stress="0.005069148193516173 -0.0006684187438652008 -0.008332280357935025 -0.0006684187438652008 0.004201489247152691 0.0042327066060694725 -0.008332280357935025 0.0042327066060694725 -0.006677760335345613" pbc="T T T"
Sr       0.00003612       0.00009431      10.76286514       0.00219007      -0.00297811      -0.25515371
Sr       3.15266193       0.39408097      14.85131598       0.27207979      -0.25513237      -0.23185900
Ti       1.97047269       1.97057450      12.28385216      -0.43595420       0.31952487      -0.07502916
Ti       1.18201077       2.36450576      16.29960014       0.09035885      -0.03721646       0.18624557
O        0.00000902       1.97050521      12.29072546      -1.00633055      -0.29432883       0.02619080
O        3.15294791       2.36457356      16.41642488      -0.00857900       0.00936370       0.21081169
O        1.97049401       3.94093312      12.41005659       0.39150651       0.58120147       0.00607012
O        1.18238144       0.39409940      16.42093099       0.02733803       0.00170721       0.23003377
O        1.97043419       1.97038596      10.44713937      -0.20592968       0.09202235      -0.17877497
O        1.18235158       2.36452183      14.49240925       0.87331993      -0.41416332       0.08146463
10
Lattice="3.940949890606662 0.0 0.0 0.0 3.940949890606662 0.0 0.0 0.0 26.940967945119528" Properties=species:S:1:pos:R:3:forces:R:3 tau=tau81 tau_p=8 tau_q=1 stage=B constraint=xy_fixed_z_free force_label=raw_dft energy=-15499.885473219281 free_energy=-15499.885473219281 stress="0.005737566937381374 -0.0006491374339460123 -0.007980625991313633 -0.0006491374339460123 0.005177490792109708 0.004162926627314314 -0.007980625991313633 0.004162926627314314 -0.004898370877089075" pbc="T T T"
Sr       0.00003612       0.00009431      10.74742830       0.00230448      -0.00289018      -0.25907335
Sr       3.15266193       0.39408097      14.86157827       0.25066559      -0.24425711      -0.20367097
Ti       1.97047269       1.97057450      12.26446540      -0.43658129       0.30894221      -0.01854177
Ti       1.18201077       2.36450576      16.31512912       0.09025935      -0.03906123       0.16691705
O        0.00000902       1.97050521      12.27077683      -0.94553964      -0.27667924       0.05168303
O        3.15294791       2.36457356      16.43577745      -0.00835326       0.00942849       0.15465417
O        1.97049401       3.94093312      12.40851877       0.38874437       0.57065352      -0.08220742
O        1.18238144       0.39409940      16.44451339       0.02590695       0.00272845       0.15661464
O        1.97043419       1.97038596      10.42366441      -0.19271987       0.08454456      -0.05430633
O        1.18235158       2.36452183      14.50346801       0.82531357      -0.41340922       0.08793070
10
Lattice="3.940949890606662 0.0 0.0 0.0 3.940949890606662 0.0 0.0 0.0 26.940967945119528" Properties=species:S:1:pos:R:3:forces:R:3 tau=tau81 tau_p=8 tau_q=1 stage=B constraint=xy_fixed_z_free force_label=raw_dft energy=-15499.900887787957 free_energy=-15499.900887787957 stress="0.007045023381425393 -0.0006133292869532338 -0.007573882167780277 -0.0006133292869532338 0.00691648131529747 0.004080292441946363 -0.007573882167780277 0.004080292441946363 -0.002272440097618643" pbc="T T T"
Sr       0.00003612       0.00009431      10.71995734       0.00217618      -0.00254539      -0.21754901
Sr       3.15266193       0.39408097      14.87054042       0.22869654      -0.23317103      -0.09998120
Ti       1.97047269       1.97057450      12.23835878      -0.43878781       0.29856730       0.04430525
Ti       1.18201077       2.36450576      16.34034419       0.09073115      -0.04184779       0.12203793
O        0.00000902       1.97050521      12.24525034      -0.87138491      -0.25478835       0.05792850
O        3.15294791       2.36457356      16.46550306      -0.00777090       0.00940252       0.06267990
O        1.97049401       3.94093312      12.40359179       0.38200937       0.55318210      -0.19904864
O        1.18238144       0.39409940      16.47988700       0.02388658       0.00377232       0.04301198
O        1.97043419       1.97038596      10.39111097      -0.17569891       0.07538449       0.09205603
O        1.18235158       2.36452183      14.52077608       0.76614246      -0.40795642       0.09455977
10
Lattice="3.940949890606662 0.0 0.0 0.0 3.940949890606662 0.0 0.0 0.0 26.940967945119528" Properties=species:S:1:pos:R:3:forces:R:3 tau=tau81 tau_p=8 tau_q=1 stage=B constraint=xy_fixed_z_free force_label=raw_dft energy=-15499.90676680744 free_energy=-15499.90676680744 stress="0.008063260176681585 -0.000579357455190854 -0.007371887492436398 -0.000579357455190854 0.008151403307740732 0.004034384561186391 -0.007371887492436398 0.004034384561186391 -0.0006886182113995888" pbc="T T T"
Sr       0.00003612       0.00009431      10.69787818       0.00179283      -0.00212013      -0.14735378
Sr       3.15266193       0.39408097      14.87328772       0.21964549      -0.22875079      -0.00628378
Ti       1.97047269       1.97057450      12.22371658      -0.44131289       0.29516907       0.06592283
Ti       1.18201077       2.36450576      16.35883819       0.09113918      -0.04350975       0.07794145
O        0.00000902       1.97050521      12.23125562      -0.83050694      -0.24305410       0.05028075
O        3.15294791       2.36457356      16.48529849      -0.00719369       0.00932025       0.00674915
O        1.97049401       3.94093312      12.39571147       0.37527256       0.53770020      -0.24076633
O        1.18238144       0.39409940      16.50264273       0.02243210       0.00414256      -0.02328828
O        1.97043419       1.97038596      10.37294558      -0.16604956       0.07085780       0.13437768
O        1.18235158       2.36452183      14.53374541       0.73478092      -0.39975512       0.08242005
10
Lattice="3.940949890606662 0.0 0.0 0.0 3.940949890606662 0.0 0.0 0.0 26.940967945119528" Properties=species:S:1:pos:R:3:forces:R:3 tau=tau81 tau_p=8 tau_q=1 stage=B constraint=xy_fixed_z_free force_label=raw_dft energy=-15499.910302790717 free_energy=-15499.910302790717 stress="0.008750960230465973 -0.0005490582538892722 -0.007289253307068447 -0.0005490582538892722 0.008855630198598712 0.004006839832730407 -0.007289253307068447 0.004006839832730407 9.548839198074298e-05" pbc="T T T"
Sr       0.00003612       0.00009431      10.68173751       0.00121202      -0.00172290      -0.07194847
Sr       3.15266193       0.39408097      14.87395120       0.21708595      -0.22775757       0.05358590
Ti       1.97047269       1.97057450      12.21753759      -0.44398864       0.29565038       0.05057591
Ti       1.18201077       2.36450576      16.37124505       0.09171228      -0.04390801       0.03508836
O        0.00000902       1.97050521      12.22520637      -0.81016129      -0.23785635       0.04719028
O        3.15294791       2.36457356      16.49669172      -0.00682576       0.00918964      -0.01435421
O        1.97049401       3.94093312      12.38525949       0.36918573       0.52356428      -0.21791719
O        1.18238144       0.39409940      16.51488374       0.02124605       0.00413511      -0.04704219
O        1.97043419       1.97038596      10.36571334      -0.16111227       0.06924855       0.10681597
O        1.18235158       2.36452183      14.54309395       0.72164592      -0.39054311       0.05800537
10
Lattice="3.940949890606662 0.0 0.0 0.0 3.940949890606662 0.0 0.0 0.0 26.940967945119528" Properties=species:S:1:pos:R:3:forces:R:3 tau=tau81 tau_p=8 tau_q=1 stage=B constraint=xy_fixed_z_free force_label=raw_dft energy=-15499.913394548152 free_energy=-15499.913394548152 stress="0.009271555598284064 -0.0005141682645116929 -0.0072451817415388736 -0.0005141682645116929 0.009222893244678492 0.003973786158583227 -0.0072451817415388736 0.003973786158583227 0.00045081538906293077" pbc="T T T"
Sr       0.00003612       0.00009431      10.66675592       0.00047128      -0.00122230       0.01694717
Sr       3.15266193       0.39408097      14.87548954       0.21634496      -0.22753286       0.08589567
Ti       1.97047269       1.97057450      12.21518233      -0.44599461       0.29786256       0.00520777
Ti       1.18201077       2.36450576      16.38189057       0.09217533      -0.04373472      -0.01031707
O        0.00000902       1.97050521      12.22302790      -0.79694351      -0.23540866       0.05172108
O        3.15294791       2.36457356      16.50481594      -0.00660902       0.00895798      -0.01306686
O        1.97049401       3.94093312      12.36940624       0.36189897       0.50579718      -0.13853592
O        1.18238144       0.39409940      16.52237262       0.01988543       0.00394741      -0.04356991
O        1.97043419       1.97038596      10.36409330      -0.15763999       0.06911742       0.02709994
O        1.18235158       2.36452183      14.55228562       0.71641116      -0.37778376       0.01861839
10
Lattice="3.940949890606662 0.0 0.0 0.0 3.940949890606662 0.0 0.0 0.0 26.940967945119528" Properties=species:S:1:pos:R:3:forces:R:3 tau=tau81 tau_p=8 tau_q=1 stage=B constraint=xy_fixed_z_free force_label=raw_dft energy=-15499.914648992946 free_energy=-15499.914648992946 stress="0.009292673223433651 -0.0004994777426685017 -0.007232327534926082 -0.0004994777426685017 0.009055788558712191 0.003945323272512044 -0.007232327534926082 0.003945323272512044 0.00027636544217503496" pbc="T T T"
Sr       0.00003612       0.00009431      10.66291907       0.00017946      -0.00104464       0.04887641
Sr       3.15266193       0.39408097      14.87836769       0.21553506      -0.22680678       0.06535899
Ti       1.97047269       1.97057450      12.21604853      -0.44452651       0.29874368      -0.02784016
Ti       1.18201077       2.36450576      16.38422929       0.09213857      -0.04301610      -0.02295224
O        0.00000902       1.97050521      12.22501456      -0.79588524      -0.23613654       0.05747753
O        3.15294791       2.36457356      16.50571566      -0.00677409       0.00872530       0.00355661
O        1.97049401       3.94093312      12.35907759       0.35794153       0.49549992      -0.06826330
O        1.18238144       0.39409940      16.52177609       0.01914289       0.00377772      -0.02235934
O        1.97043419       1.97038596      10.36659678      -0.15671054       0.06984967      -0.03057890
O        1.18235158       2.36452183      14.55557470       0.71895861      -0.36959222      -0.00327610
10
Lattice="3.940949890606662 0.0 0.0 0.0 3.940949890606662 0.0 0.0 0.0 26.940967945119528" Properties=species:S:1:pos:R:3:forces:R:3 tau=tau81 tau_p=8 tau_q=1 stage=B constraint=xy_fixed_z_free force_label=raw_dft energy=-15499.915276215346 free_energy=-15499.915276215346 stress="0.009148522477847337 -0.0004948869545925045 -0.007210291752161294 -0.0004948869545925045 0.00875830549138757 0.003912269598364864 -0.007210291752161294 0.003912269598364864 3.764446222317752e-05" pbc="T T T"
Sr       0.00003612       0.00009431      10.66367246       0.00015529      -0.00104798       0.04701571
Sr       3.15266193       0.39408097      14.88218625       0.21323933      -0.22490931       0.02754011
Ti       1.97047269       1.97057450      12.21621512      -0.44050942       0.29773812      -0.04126852
Ti       1.18201077       2.36450576      16.38368663       0.09188429      -0.04227279      -0.01694845
O        0.00000902       1.97050521      12.22778723      -0.79765262      -0.23726654       0.05599271
O        3.15294791       2.36457356      16.50512189      -0.00711219       0.00850212       0.01763751
O        1.97049401       3.94093312      12.35239074       0.35537145       0.48886544      -0.02166412
O        1.18238144       0.39409940      16.51961154       0.01866775       0.00368336      -0.00352370
O        1.97043419       1.97038596      10.36811391      -0.15592712       0.07032944      -0.05392272
O        1.18235158       2.36452183      14.55653419       0.72188349      -0.36362212      -0.01085854
10
Lattice="3.940949890606662 0.0 0.0 0.0 3.940949890606662 0.0 0.0 0.0 26.940967945119528" Properties=species:S:1:pos:R:3:forces:R:3 tau=tau81 tau_p=8 tau_q=1 stage=B constraint=xy_fixed_z_free force_label=raw_dft energy=-15499.915674726062 free_energy=-15499.915674726062 stress="0.00902640751502581 -0.0004930506393621056 -0.007172647289938117 -0.0004930506393621056 0.008520502669050913 0.0038746251361416865 -0.007172647289938117 0.0038746251361416865 -6.977997875515833e-05" pbc="T T T"
Sr       0.00003612       0.00009431      10.66512299       0.00024863      -0.00113360       0.03139831
Sr       3.15266193       0.39408097      14.88609103       0.20980665      -0.22210269      -0.00519517
Ti       1.97047269       1.97057450      12.21447753      -0.43521063       0.29548377      -0.03755842
Ti       1.18201077       2.36450576      16.38326205       0.09171536      -0.04171306      -0.00522397
O        0.00000902       1.97050521      12.23015551      -0.79867617      -0.23784401       0.04398309
O        3.15294791       2.36457356      16.50569614      -0.00747934       0.00827972       0.02257506
O        1.97049401       3.94093312      12.34752139       0.35298598       0.48355406       0.00203220
O        1.18238144       0.39409940      16.51876199       0.01826100       0.00364222       0.00583383
O        1.97043419       1.97038596      10.36704665      -0.15440940       0.07023688      -0.04848766
O        1.18235158       2.36452183      14.55718468       0.72275792      -0.35840330      -0.00935702
10
Lattice="3.940949890606662 0.0 0.0 0.0 3.940949890606662 0.0 0.0 0.0 26.940967945119528" Properties=species:S:1:pos:R:3:forces:R:3 tau=tau81 tau_p=8 tau_q=1 stage=B constraint=xy_fixed_z_free force_label=raw_dft energy=-15499.915955955714 free_energy=-15499.915955955714 stress="0.009000699101800224 -0.0004921324817469061 -0.0071267394091781445 -0.0004921324817469061 0.00840481480953578 0.00383422620107291 -0.0071267394091781445 0.00383422620107291 -9.181576151994517e-06" pbc="T T T"
Sr       0.00003612       0.00009431      10.66586663       0.00038618      -0.00124339       0.01270202
Sr       3.15266193       0.39408097      14.88935876       0.20607932      -0.21890347      -0.02336799
Ti       1.97047269       1.97057450      12.21106180      -0.42964008       0.29276072      -0.02143709
Ti       1.18201077       2.36450576      16.38392242       0.09173028      -0.04136211       0.00527359
O        0.00000902       1.97050521      12.23210625      -0.79864223      -0.23788258       0.02182609
O        3.15294791       2.36457356      16.50798800      -0.00780227       0.00806349       0.01806766
O        1.97049401       3.94093312      12.34342587       0.35034289       0.47862628       0.00864405
O        1.18238144       0.39409940      16.51969946       0.01786377       0.00362448       0.00573819
O        1.97043419       1.97038596      10.36367523      -0.15215840       0.06967150      -0.02443422
O        1.18235158       2.36452183      14.55821554       0.72184055      -0.35335519      -0.00301256
