10
Lattice="3.940949890606662 0.0 0.0 0.0 3.940949890606662 0.0 0.0 0.0 26.940967945119528" Properties=species:S:1:pos:R:3:forces:R:3 energy=-15500.494033642157 free_energy=-15500.494033642157 stress="0.009540575779537503 0.0 0.0070496141695013895 0.0 0.008750042072850775 0.0 0.0070496141695013895 0.0 -0.0008483776364442933" pbc="T T T"
Sr       0.00003626       0.00009419      10.75260867      -0.00278965       0.00002391       0.05790510
Sr       0.39399686       3.94093570      14.64522241      -0.30374010      -0.00001466       0.34458567
Ti       1.97047258       1.97057465      12.38212169       0.24028399      -0.00015247      -0.04311766
Ti       2.36429564       1.97041071      16.28444791      -0.05159818      -0.00009899      -0.00024554
O        0.00000906       1.97050529      12.45001441       0.98596741      -0.00010542      -0.29641143
O        0.39428297       1.97047849      16.39256827      -0.00959896       0.00001594      -0.02921442
O        1.97049386       3.94093294      12.44909065      -0.22503760       0.00000926      -0.03852284
O        2.36466649       0.00000434      16.37955485      -0.02842869       0.00007559       0.01125012
O        1.97043435       1.97038588      10.49176941       0.17947406       0.00013190       0.04005290
O        2.36463654       1.97042687      14.44792112      -0.78453228       0.00011519      -0.04628191
10
Lattice="3.940949890606662 0.0 0.0 0.0 3.940949890606662 0.0 0.0 0.0 26.940967945119528" Properties=species:S:1:pos:R:3:forces:R:3 energy=-15500.498085689329 free_energy=-15500.498085689329 stress="0.009345926365115219 0.0 0.006953207619905448 0.0 0.008605891327264461 0.0 0.006953207619905448 0.0 -0.0008713315768242797" pbc="T T T"
Sr       0.00003612       0.00009431      10.75380050      -0.00272100       0.00002185       0.04544965
Sr       0.39399699       3.94093589      14.65231487      -0.29465665      -0.00001800       0.27594288
Ti       1.97047269       1.97057450      12.38123453       0.23459311      -0.00016455      -0.07718272
Ti       2.36429575       1.97041077      16.28444286      -0.05131948      -0.00009513      -0.03877275
O        0.00000902       1.97050521      12.44391381       0.97302422      -0.00010156      -0.24900183
O        0.39428297       1.97047857      16.39196705      -0.00939275       0.00001491      -0.01468743
O        1.97049401       3.94093312      12.44829777      -0.22932672       0.00001157      -0.01440666
O        2.36466641       0.00000441      16.37978635      -0.02823843       0.00007662       0.02499961
O        1.97043419       1.97038596      10.49259374       0.17985844       0.00013704       0.02234237
O        2.36463656       1.97042684      14.44696849      -0.77182126       0.00011750       0.02531688
10
Lattice="3.940949890606662 0.0 0.0 0.0 3.940949890606662 0.0 0.0 0.0 26.940967945119528" Properties=species:S:1:pos:R:3:forces:R:3 energy=-15500.501862629408 free_energy=-15500.501862629408 stress="0.009080578814322577 0.0 0.006844865021311912 0.0 0.008397469548614185 0.0 0.006844865021311912 0.0 -0.0010650628336313641" pbc="T T T"
Sr       0.00003612       0.00009431      10.75509052      -0.00270866       0.00001980       0.03375858
Sr       0.39399699       3.94093589      14.66011625      -0.28483426      -0.00002160       0.21657199
Ti       1.97047269       1.97057450      12.37928785       0.23055056      -0.00015761      -0.08537631
Ti       2.36429575       1.97041077      16.28355959      -0.05077286      -0.00008716      -0.02849245
O        0.00000902       1.97050521      12.43693832       0.95596984      -0.00009924      -0.20175652
O        0.39428297       1.97047857      16.39150375      -0.00910171       0.00001311      -0.00604184
O        1.97049401       3.94093312      12.44779973      -0.23279462       0.00001260       0.00286447
O        2.36466641       0.00000441      16.38040488      -0.02807825       0.00007045       0.03247020
O        1.97043419       1.97038596      10.49327911       0.17960158       0.00013421      -0.00469046
O        2.36463656       1.97042684      14.44733996      -0.75783163       0.00011544       0.04069259
10
Lattice="3.940949890606662 0.0 0.0 0.0 3.940949890606662 0.0 0.0 0.0 26.940967945119528" Properties=species:S:1:pos:R:3:forces:R:3 energy=-15500.506176450092 free_energy=-15500.506176450092 stress="0.008695870773554007 0.0 0.006685105596267208 0.0 0.00810733174221116 0.0 0.006685105596267208 0.0 -0.0013267377539632078" pbc="T T T"
Sr       0.00003612       0.00009431      10.75695716      -0.00268937       0.00001337       0.01472008
Sr       0.39399699       3.94093589      14.67181833      -0.27025842      -0.00002597       0.13395370
Ti       1.97047269       1.97057450      12.37556313       0.22589867      -0.00015221      -0.07942755
Ti       2.36429575       1.97041077      16.28240982      -0.05000590      -0.00007688      -0.00405694
O        0.00000902       1.97050521      12.42627174       0.92946202      -0.00009693      -0.13574653
O        0.39428297       1.97047857      16.39098875      -0.00864482       0.00001106       0.00628403
O        1.97049401       3.94093312      12.44753373      -0.23723337       0.00001286       0.01972448
O        2.36466641       0.00000441      16.38176597      -0.02782654       0.00006479       0.04212984
O        1.97043419       1.97038596      10.49350966       0.17865207       0.00013421      -0.04122584
O        2.36463656       1.97042684      14.44850168      -0.73735408       0.00011519       0.04364499
10
Lattice="3.940949890606662 0.0 0.0 0.0 3.940949890606662 0.0 0.0 0.0 26.940967945119528" Properties=species:S:1:pos:R:3:forces:R:3 energy=-15500.509716923247 free_energy=-15500.509716923247 stress="0.008135794628282341 0.0 0.006449139089160949 0.0 0.007699669761062602 0.0 0.006449139089160949 0.0 -0.0016141210875206362" pbc="T T T"
Sr       0.00003612       0.00009431      10.75948707      -0.00270094       0.00000848      -0.01931387
Sr       0.39399699       3.94093589      14.68937144      -0.24898614      -0.00003548       0.01696722
Ti       1.97047269       1.97057450      12.36898161       0.22079708      -0.00015247      -0.05736337
Ti       2.36429575       1.97041077      16.28140823      -0.04897797      -0.00006016       0.03022872
O        0.00000902       1.97050521      12.40983146       0.88923737      -0.00008742      -0.04240675
O        0.39428297       1.97047857      16.39062585      -0.00796759       0.00000823       0.02596506
O        1.97049401       3.94093312      12.44785086      -0.24299599       0.00001440       0.03263038
O        2.36466641       0.00000441      16.38471538      -0.02741850       0.00005708       0.05568444
O        1.97043419       1.97038596      10.49222347       0.17648463       0.00013318      -0.07999499
O        2.36463656       1.97042684      14.45082460      -0.70747194       0.00011416       0.03760316
10
Lattice="3.940949890606662 0.0 0.0 0.0 3.940949890606662 0.0 0.0 0.0 26.940967945119528" Properties=species:S:1:pos:R:3:forces:R:3 energy=-15500.51048877415 free_energy=-15500.51048877415 stress="0.007925536534401667 0.0 0.006341714648182613 0.0 0.007577554798241075 0.0 0.006341714648182613 0.0 -0.0015819855709886552" pbc="T T T"
Sr       0.00003612       0.00009431      10.76006111      -0.00272614       0.00000720      -0.03841151
Sr       0.39399699       3.94093589      14.69739615      -0.23931468      -0.00003651      -0.02978957
Ti       1.97047269       1.97057450      12.36494774       0.22034046      -0.00015838      -0.03871181
Ti       2.36429575       1.97041077      16.28189801      -0.04870055      -0.00005631       0.03956953
O        0.00000902       1.97050521      12.40169009       0.86964968      -0.00008459      -0.00437807
O        0.39428297       1.97047857      16.39110148      -0.00765057       0.00000823       0.03458931
O        1.97049401       3.94093312      12.44868310      -0.24514312       0.00001517       0.02677907
O        2.36466641       0.00000441      16.38733333      -0.02718942       0.00005399       0.05930224
O        1.97043419       1.97038596      10.48974903       0.17469926       0.00013550      -0.07731796
O        2.36463656       1.97042684      14.45245990      -0.69396517       0.00011596       0.02836878
10
Lattice="3.940949890606662 0.0 0.0 0.0 3.940949890606662 0.0 0.0 0.0 26.940967945119528" Properties=species:S:1:pos:R:3:forces:R:3 energy=-15500.51100334142 free_energy=-15500.51100334142 stress="0.007906255224482479 0.0 0.0062921341369618425 0.0 0.007621626363770649 0.0 0.0062921341369618425 0.0 -0.0013552006400343907" pbc="T T T"
Sr       0.00003612       0.00009431      10.75933552      -0.00272537       0.00000489      -0.04837402
Sr       0.39399699       3.94093589      14.70105029      -0.23463630      -0.00003882      -0.04270731
Ti       1.97047269       1.97057450      12.36191506       0.22218008      -0.00015581      -0.02131959
Ti       2.36429575       1.97041077      16.28329482      -0.04882936      -0.00005579       0.03755328
O        0.00000902       1.97050521      12.39711228       0.85878317      -0.00008433       0.00806401
O        0.39428297       1.97047857      16.39225314      -0.00748705       0.00000771       0.03619342
O        1.97049401       3.94093312      12.44971870      -0.24578204       0.00001466       0.01131851
O        2.36466641       0.00000441      16.39027739      -0.02701432       0.00005348       0.05616678
O        1.97043419       1.97038596      10.48649616       0.17300825       0.00013755      -0.05503061
O        2.36463656       1.97042684      14.45386661      -0.68749679       0.00011673       0.01813579
10
Lattice="3.940949890606662 0.0 0.0 0.0 3.940949890606662 0.0 0.0 0.0 26.940967945119528" Properties=species:S:1:pos:R:3:forces:R:3 energy=-15500.511633284956 free_energy=-15500.511633284956 stress="0.008012761507845615 0.0 0.006258162305199462 0.0 0.0078052578868105385 0.0 0.006258162305199462 0.0 -0.0008988763052802631" pbc="T T T"
Sr       0.00003612       0.00009431      10.75698495      -0.00269786       0.00000463      -0.05275672
Sr       0.39399699       3.94093589      14.70326434      -0.23127819      -0.00004037      -0.03792274
Ti       1.97047269       1.97057450      12.35830303       0.22639180      -0.00015735       0.00214096
Ti       2.36429575       1.97041077      16.28602962      -0.04927416      -0.00005451       0.02667108
O        0.00000902       1.97050521      12.39284406       0.84888879      -0.00008485       0.00949766
O        0.39428297       1.97047857      16.39459347      -0.00736133       0.00000823       0.03210922
O        1.97049401       3.94093312      12.45106452      -0.24579618       0.00001106      -0.01530732
O        2.36466641       0.00000441      16.39505366      -0.02679141       0.00005425       0.04515937
O        1.97043419       1.97038596      10.48146056       0.17071816       0.00014064      -0.01448020
O        2.36463656       1.97042684      14.45572175      -0.68279990       0.00011801       0.00488921
10
Lattice="3.940949890606662 0.0 0.0 0.0 3.940949890606662 0.0 0.0 0.0 26.940967945119528" Properties=species:S:1:pos:R:3:forces:R:3 energy=-15500.512091932831 free_energy=-15500.512091932831 stress="0.008254236960643072 0.0 0.006254489674738665 0.0 0.008112840687902355 0.0 0.006254489674738665 0.0 -0.0003250277957806059" pbc="T T T"
Sr       0.00003612       0.00009431      10.75297926      -0.00260144       0.00000591      -0.04467575
Sr       0.39399699       3.94093589      14.70302690      -0.23059607      -0.00004037      -0.01427399
Ti       1.97047269       1.97057450      12.35542815       0.23187571      -0.00015478       0.02059582
Ti       2.36429575       1.97041077      16.28949098      -0.04989637      -0.00006248       0.01154425
O        0.00000902       1.97050521      12.39020654       0.84322568      -0.00008613       0.00009307
O        0.39428297       1.97047857      16.39780213      -0.00731376       0.00001003       0.02084368
O        1.97049401       3.94093312      12.45179822      -0.24520688       0.00000771      -0.04147215
O        2.36466641       0.00000441      16.40073722      -0.02654073       0.00005785       0.02652376
O        1.97043419       1.97038596      10.47637857       0.16863737       0.00014398       0.02634327
O        2.36463656       1.97042684      14.45747199      -0.68158351       0.00011801      -0.00552170
10
Lattice="3.940949890606662 0.0 0.0 0.0 3.940949890606662 0.0 0.0 0.0 26.940967945119528" Properties=species:S:1:pos:R:3:forces:R:3 energy=-15500.512282684631 free_energy=-15500.512282684631 stress="0.008413996385687775 0.0 0.006267343881351457 0.0 0.008290963265251049 0.0 0.006267343881351457 0.0 -6.702550590955998e-05" pbc="T T T"
Sr       0.00003612       0.00009431      10.75014548      -0.00249320       0.00000694      -0.03067635
Sr       0.39399699       3.94093589      14.70173476      -0.23165845      -0.00004011       0.00301565
Ti       1.97047269       1.97057450      12.35498399       0.23447124      -0.00015452       0.02054389
Ti       2.36429575       1.97041077      16.29121751      -0.05020773      -0.00006351       0.00458813
O        0.00000902       1.97050521      12.38991459       0.84310741      -0.00008819      -0.00598321
O        0.39428297       1.97047857      16.39964664      -0.00732790       0.00000900       0.01172012
O        1.97049401       3.94093312      12.45111284      -0.24486389       0.00000643      -0.04525887
O        2.36466641       0.00000441      16.40359168      -0.02638800       0.00006094       0.01412461
O        1.97043419       1.97038596      10.47492280       0.16812598       0.00014398       0.03332433
O        2.36463656       1.97042684      14.45804969      -0.68276570       0.00011878      -0.00539803
10
Lattice="3.940949890606662 0.0 0.0 0.0 3.940949890606662 0.0 0.0 0.0 26.940967945119528" Properties=species:S:1:pos:R:3:forces:R:3 energy=-15500.512453163952 free_energy=-15500.512453163952 stress="0.008576510283578078 0.0 0.00627927993034905 0.0 0.00845806795121735 0.0 0.00627927993034905 0.0 0.00012854206612792322" pbc="T T T"
Sr       0.00003612       0.00009431      10.74679877      -0.00233893       0.00000771      -0.00988923
Sr       0.39399699       3.94093589      14.70047539      -0.23278382      -0.00003959       0.01693380
Ti       1.97047269       1.97057450      12.35525560       0.23643479      -0.00015607       0.00992189
Ti       2.36429575       1.97041077      16.29278348      -0.05040982      -0.00006325       0.00035790
O        0.00000902       1.97050521      12.38974621       0.84348844      -0.00008947      -0.00661699
O        0.39428297       1.97047857      16.40156680      -0.00733819       0.00000977       0.00153752
O        1.97049401       3.94093312      12.44914610      -0.24485232       0.00000463      -0.03621425
O        2.36466641       0.00000441      16.40639362      -0.02617640       0.00006351       0.00083278
O        1.97043419       1.97038596      10.47468913       0.16805887       0.00014424       0.02294247
O        2.36463656       1.97042684      14.45846487      -0.68408262       0.00011853       0.00019412
10
Lattice="3.940949890606662 0.0 0.0 0.0 3.940949890606662 0.0 0.0 0.0 26.940967945119528" Properties=species:S:1:pos:R:3:forces:R:3 energy=-15500.512529763997 free_energy=-15500.512529763997 stress="0.008621500006722852 0.0 0.006274689142273053 0.0 0.008501221359131724 0.0 0.006274689142273053 0.0 0.0001597594250447046" pbc="T T T"
Sr       0.00003612       0.00009431      10.74504936      -0.00223403       0.00000797       0.00223557
Sr       0.39399699       3.94093589      14.70070406      -0.23244032      -0.00003882       0.01612107
Ti       1.97047269       1.97057450      12.35553243       0.23671993      -0.00015555      -0.00121922
Ti       2.36429575       1.97041077      16.29342500      -0.05041702      -0.00006505       0.00077185
O        0.00000902       1.97050521      12.38919338       0.84248829      -0.00008973      -0.00009410
O        0.39428297       1.97047857      16.40246972      -0.00730913       0.00001003      -0.00223840
O        1.97049401       3.94093312      12.44721207      -0.24523285       0.00000489      -0.02214414
O        2.36466641       0.00000441      16.40772452      -0.02600799       0.00006453      -0.00457476
O        1.97043419       1.97038596      10.47527066       0.16815606       0.00014347       0.00607732
O        2.36463656       1.97042684      14.45873875      -0.68372267       0.00011801       0.00506507
