10
Lattice="3.940949890606662 0.0 0.0 0.0 3.940949890606662 0.0 0.0 0.0 26.940967945119528" Properties=species:S:1:pos:R:3:forces:R:3 energy=-15497.565796215844 free_energy=-15497.565796215844 stress="0.005209626308641689 -0.0 -1.8363152303989035e-06 -0.0 0.019747733987709806 -0.013202188348952917 -1.8363152303989035e-06 -0.013202188348952917 -0.03247615300721981" pbc="T T T"
Sr       0.00003626       0.00009419      10.75260867      -0.00007816      -0.00464675       0.28277661
Sr       3.94085176       2.36455575      14.64522241       0.00008973       0.66077994       4.62432984
Ti       1.97047258       1.97057465      12.38212169      -0.00008870      -0.34077967      -2.29942420
Ti       1.97020066       0.39403075      16.28444791      -0.00027074       0.14868304       0.31365119
O        0.00000906       1.97050529      12.45001441      -0.00005296      -0.22086008      -1.50537370
O        0.00018798       0.39409854      16.39256827       0.00007353       0.04575921      -0.10045351
O        1.97049386       3.94093294      12.44909065      -0.00004217      -1.55235676      -3.63361129
O        1.97057150       2.36457427      16.37955485       0.00038824      -0.01650854      -0.26098214
O        1.97043435       1.97038588      10.49176941       0.00009025      -0.20167682       0.27994891
O        1.97054155       0.39404691      14.44792112      -0.00010927       1.48160642       2.29913881
10
Lattice="3.940949890606662 0.0 0.0 0.0 3.940949890606662 0.0 0.0 0.0 26.940967945119528" Properties=species:S:1:pos:R:3:forces:R:3 energy=-15498.338898026506 free_energy=-15498.338898026506 stress="0.0033081218875636244 -0.0 -9.181576151994517e-07 -0.0 0.014982495964824653 -0.009868358048163706 -9.181576151994517e-07 -0.009868358048163706 -0.028876975155637957" pbc="T T T"
Sr       0.00003612       0.00009431      10.75842874      -0.00008562      -0.00271457       0.23989215
Sr       3.94085191       2.36455593      14.74039935       0.00010362       0.39150676       2.81646534
Ti       1.97047269       1.97057450      12.33479586      -0.00003265      -0.32974758      -1.39006795
Ti       1.97020076       0.39403080      16.29090339       0.00015118       0.11971493       0.65523664
O        0.00000902       1.97050521      12.41903128      -0.00009333      -0.02259408      -0.51168578
O        0.00018798       0.39409860      16.39050082      -0.00034993       0.03728717       0.14857994
O        1.97049401       3.94093312      12.37430467      -0.00002674      -1.09952841      -2.44045255
O        1.97057142       2.36457436      16.37418335       0.00026277      -0.01811034       0.02952706
O        1.97043419       1.97038596      10.49753122       0.00009513      -0.17027593      -0.40256508
O        1.97054157       0.39404688      14.49524127      -0.00002443       1.09446205       0.85507049
10
Lattice="3.940949890606662 0.0 0.0 0.0 3.940949890606662 0.0 0.0 0.0 26.940967945119528" Properties=species:S:1:pos:R:3:forces:R:3 energy=-15498.812324676253 free_energy=-15498.812324676253 stress="0.000723508200777168 -0.0 -9.181576151994517e-07 -0.0 0.009400097664411987 -0.00729935304083564 -9.181576151994517e-07 -0.00729935304083564 -0.02555232643100074" pbc="T T T"
Sr       0.00003612       0.00009431      10.76713325      -0.00011801      -0.00024811      -0.00674992
Sr       3.94085191       2.36455593      14.84509367       0.00017689       0.21761740       1.17564258
Ti       1.97047269       1.97057450      12.28309119       0.00000926      -0.30589057      -0.58983909
Ti       1.97020076       0.39403080      16.31379997       0.00054585       0.09555273       0.34287178
O        0.00000902       1.97050521      12.39873643      -0.00010439       0.09154927       0.06202195
O        0.00018798       0.39409860      16.39536413      -0.00063249       0.02897813       0.51681642
O        1.97049401       3.94093312      12.28430277      -0.00000540      -0.76639854      -1.35585145
O        1.97057142       2.36457436      16.37468812       0.00006453      -0.01563976       0.45553623
O        1.97043419       1.97038596      10.48436940       0.00008767      -0.14206708      -0.91740380
O        1.97054157       0.39404688      14.52874102      -0.00002365       0.79654653       0.31695506
10
Lattice="3.940949890606662 0.0 0.0 0.0 3.940949890606662 0.0 0.0 0.0 26.940967945119528" Properties=species:S:1:pos:R:3:forces:R:3 energy=-15499.040412672726 free_energy=-15499.040412672726 stress="-0.0019391488833012422 -0.0 -0.0 -0.0 0.0041831260948487015 -0.005437329397211153 -0.0 -0.005437329397211153 -0.021970593574107678" pbc="T T T"
Sr       0.00003612       0.00009431      10.77114514      -0.00014167       0.00255413      -0.45750775
Sr       3.94085191       2.36455593      14.94573535       0.00024991       0.11999647      -0.09029123
Ti       1.97047269       1.97057450      12.23298581       0.00001311      -0.28415189      -0.38185176
Ti       1.97020076       0.39403080      16.33735058       0.00088857       0.07444526       0.19440445
O        0.00000902       1.97050521      12.38899107      -0.00009153       0.14565197       0.32152236
O        0.00018798       0.39409860      16.41731264      -0.00083458       0.02262185       0.78099264
O        1.97049401       3.94093312      12.18516108       0.00003445      -0.53290484      -0.33552613
O        1.97057142       2.36457436      16.39204715      -0.00016069      -0.01353274       0.78120527
O        1.97043419       1.97038596      10.44383147       0.00008176      -0.11547518      -0.81377780
O        1.97054157       0.39404688      14.56075967      -0.00003908       0.58079498       0.00082995
10
Lattice="3.940949890606662 0.0 0.0 0.0 3.940949890606662 0.0 0.0 0.0 26.940967945119528" Properties=species:S:1:pos:R:3:forces:R:3 energy=-15499.126601193639 free_energy=-15499.126601193639 stress="-0.0020704454222747635 -0.0 -0.0 -0.0 0.0027278462747575708 -0.0046890309408236 -0.0 -0.0046890309408236 -0.01935843515886524" pbc="T T T"
Sr       0.00003612       0.00009431      10.76018970      -0.00015092       0.00376898      -0.65580820
Sr       3.94085191       2.36455593      14.99006546       0.00024708       0.08869457      -0.46856247
Ti       1.97047269       1.97057450      12.19842616       0.00002031      -0.27132569      -0.27948843
Ti       1.97020076       0.39403080      16.35269255       0.00096596       0.06630361       0.25701313
O        0.00000902       1.97050521      12.39121108      -0.00007430       0.15860236       0.24585865
O        0.00018798       0.39409860      16.44695768      -0.00084152       0.02000061       0.75205667
O        1.97049401       3.94093312      12.13178548       0.00004731      -0.44316768       0.05929170
O        1.97057142       2.36457436      16.41967645      -0.00021520      -0.01230144       0.78040386
O        1.97043419       1.97038596      10.40727109       0.00006993      -0.10174395      -0.61973434
O        1.97054157       0.39404688      14.57704432      -0.00006865       0.49116838      -0.07103058
10
Lattice="3.940949890606662 0.0 0.0 0.0 3.940949890606662 0.0 0.0 0.0 26.940967945119528" Properties=species:S:1:pos:R:3:forces:R:3 energy=-15499.226524116331 free_energy=-15499.226524116331 stress="-0.0003975622473813626 -0.0 -9.181576151994517e-07 -0.0 0.0027737541555175435 -0.004004085359884809 -9.181576151994517e-07 -0.004004085359884809 -0.01509083856341819" pbc="T T T"
Sr       0.00003612       0.00009431      10.72974769      -0.00016069       0.00465807      -0.76476692
Sr       3.94085191       2.36455593      15.02963448       0.00019206       0.06375950      -0.62690360
Ti       1.97047269       1.97057450      12.15125642       0.00001388      -0.25560134      -0.11075310
Ti       1.97020076       0.39403080      16.37778573       0.00095079       0.06041990       0.33762338
O        0.00000902       1.97050521      12.39732162      -0.00004885       0.16611100      -0.00165888
O        0.00018798       0.39409860      16.49863582      -0.00073405       0.01725904       0.55945894
O        1.97049401       3.94093312      12.07307232       0.00005374      -0.36418674       0.32913309
O        1.97057142       2.36457436      16.46990323      -0.00018898      -0.01073461       0.61004565
O        1.97043419       1.97038596      10.35271685       0.00005245      -0.08686961      -0.34043514
O        1.97054157       0.39404688      14.59524580      -0.00013010       0.40518478       0.00825684
10
Lattice="3.940949890606662 0.0 0.0 0.0 3.940949890606662 0.0 0.0 0.0 26.940967945119528" Properties=species:S:1:pos:R:3:forces:R:3 energy=-15499.325196675938 free_energy=-15499.325196675938 stress="0.00395266853343364 -0.0 -1.8363152303989035e-06 -0.0 0.0050177313670650035 -0.0033870834424707774 -1.8363152303989035e-06 -0.0033870834424707774 -0.008541620294200499" pbc="T T T"
Sr       0.00003612       0.00009431      10.66811595      -0.00015915       0.00477968      -0.71126715
Sr       3.94085191       2.36455593      15.06008166       0.00008536       0.04538228      -0.50107355
Ti       1.97047269       1.97057450      12.09070960      -0.00000154      -0.23739664       0.08822715
Ti       1.97020076       0.39403080      16.41976132       0.00072685       0.05599503       0.42541062
O        0.00000902       1.97050521      12.40209783      -0.00001825       0.16813652      -0.39740153
O        0.00018798       0.39409860      16.57810604      -0.00046845       0.01471082       0.18557991
O        1.97049401       3.94093312      12.01079117       0.00005708      -0.29527371       0.41348610
O        1.97057142       2.36457436      16.54922663      -0.00005502      -0.00908191       0.24453222
O        1.97043419       1.97038596      10.27632180       0.00004525      -0.07110566       0.02746170
O        1.97054157       0.39404688      14.62010796      -0.00021237       0.32385333       0.22504429
10
Lattice="3.940949890606662 0.0 0.0 0.0 3.940949890606662 0.0 0.0 0.0 26.940967945119528" Properties=species:S:1:pos:R:3:forces:R:3 energy=-15499.373445180667 free_energy=-15499.373445180667 stress="0.007574800325395477 -0.0 -1.8363152303989035e-06 -0.0 0.00763631688561384 -0.0031961066585092916 -1.8363152303989035e-06 -0.0031961066585092916 -0.00453845309193089" pbc="T T T"
Sr       0.00003612       0.00009431      10.61659981      -0.00014578       0.00417264      -0.50800679
Sr       3.94085191       2.36455593      15.06088804       0.00001671       0.04251910      -0.25123097
Ti       1.97047269       1.97057450      12.06218353       0.00000051      -0.22977075       0.13322480
Ti       1.97020076       0.39403080      16.45279790       0.00050754       0.05566490       0.39046110
O        0.00000902       1.97050521      12.39497249      -0.00000874       0.16517692      -0.57236022
O        0.00018798       0.39409860      16.62563550      -0.00027357       0.01330649      -0.03395964
O        1.97049401       3.94093312      11.98981118       0.00004577      -0.27199160       0.29667291
O        1.97057142       2.36457436      16.59827986       0.00006428      -0.00819308       0.01449537
O        1.97043419       1.97038596      10.23544261       0.00004191      -0.06438505       0.18001322
O        1.97054157       0.39404688      14.63870904      -0.00024863       0.29350068       0.35069024
10
Lattice="3.940949890606662 0.0 0.0 0.0 3.940949890606662 0.0 0.0 0.0 26.940967945119528" Properties=species:S:1:pos:R:3:forces:R:3 energy=-15499.413877215384 free_energy=-15499.413877215384 stress="0.01101880954000862 -0.0 -1.8363152303989035e-06 -0.0 0.01065246465154404 -0.003121735891678136 -1.8363152303989035e-06 -0.003121735891678136 -0.0013441827486519974" pbc="T T T"
Sr       0.00003612       0.00009431      10.55909694      -0.00013061       0.00290560      -0.19580545
Sr       3.94085191       2.36455593      15.05043747      -0.00002982       0.04494494       0.05502315
Ti       1.97047269       1.97057450      12.04449172      -0.00001106      -0.22546646       0.07545699
Ti       1.97020076       0.39403080      16.49107893       0.00028436       0.05636038       0.25519716
O        0.00000902       1.97050521      12.37297438      -0.00000848       0.15958169      -0.60377267
O        0.00018798       0.39409860      16.66407747      -0.00011210       0.01205899      -0.16213557
O        1.97049401       3.94093312      11.98398615       0.00003497      -0.25940580       0.11138713
O        1.97057142       2.36457436      16.63953893       0.00017946      -0.00715255      -0.13353898
O        1.97043419       1.97038596      10.20641878       0.00005116      -0.05944982       0.21101224
O        1.97054157       0.39404688      14.66321920      -0.00025788       0.27562329       0.38717574
10
Lattice="3.940949890606662 0.0 0.0 0.0 3.940949890606662 0.0 0.0 0.0 26.940967945119528" Properties=species:S:1:pos:R:3:forces:R:3 energy=-15499.438216301627 free_energy=-15499.438216301627 stress="0.012666902459291635 -0.0 -1.8363152303989035e-06 -0.0 0.012480516463406147 -0.003073073538072565 -1.8363152303989035e-06 -0.003073073538072565 8.263418536795066e-06" pbc="T T T"
Sr       0.00003612       0.00009431      10.51749388      -0.00011673       0.00191084       0.05827585
Sr       3.94085191       2.36455593      15.04364356      -0.00004808       0.04748082       0.24169475
Ti       1.97047269       1.97057450      12.03627885      -0.00002288      -0.22221119      -0.02958337
Ti       1.97020076       0.39403080      16.52240113       0.00018101       0.05726335       0.09051594
O        0.00000902       1.97050521      12.34248133      -0.00001594       0.15394994      -0.50108744
O        0.00018798       0.39409860      16.68381166      -0.00006402       0.01092462      -0.15816218
O        1.97049401       3.94093312      11.98500150       0.00002545      -0.25141018       0.00327610
O        1.97057142       2.36457436      16.66192677       0.00024323      -0.00627838      -0.14556352
O        1.97043419       1.97038596      10.19372783       0.00005374      -0.05614981       0.12921645
O        1.97054157       0.39404688      14.68855345      -0.00023551       0.26452024       0.31141767
10
Lattice="3.940949890606662 0.0 0.0 0.0 3.940949890606662 0.0 0.0 0.0 26.940967945119528" Properties=species:S:1:pos:R:3:forces:R:3 energy=-15499.455218382436 free_energy=-15499.455218382436 stress="0.012929495537238678 0.0 -1.8363152303989035e-06 0.0 0.013118636005969764 -0.002967485412324628 -1.8363152303989035e-06 -0.002967485412324628 0.00017904073496389307" pbc="T T T"
Sr       0.00003612       0.00009431      10.49065774      -0.00011184       0.00144445       0.20985884
Sr       3.94085191       2.36455593      15.04834923      -0.00004988       0.04740111       0.29565295
Ti       1.97047269       1.97057450      12.02806004      -0.00002468      -0.21599966      -0.11895954
Ti       1.97020076       0.39403080      16.54740488       0.00016789       0.05632413      -0.03283839
O        0.00000902       1.97050521      12.30748800      -0.00002211       0.14838916      -0.34506313
O        0.00018798       0.39409860      16.69396112      -0.00010156       0.00973471      -0.08563779
O        1.97049401       3.94093312      11.98343186       0.00002108      -0.24081106      -0.01301055
O        1.97057142       2.36457436      16.67414677       0.00026765      -0.00559832      -0.08204442
O        1.97043419       1.97038596      10.18698318       0.00006016      -0.05269707       0.00291949
O        1.97054157       0.39404688      14.71483713      -0.00020672       0.25181230       0.16912280
10
Lattice="3.940949890606662 0.0 0.0 0.0 3.940949890606662 0.0 0.0 0.0 26.940967945119528" Properties=species:S:1:pos:R:3:forces:R:3 energy=-15499.469546264496 free_energy=-15499.469546264496 stress="0.01229229415229026 -0.0 -1.8363152303989035e-06 -0.0 0.01280829873203235 -0.0027737541555175435 -1.8363152303989035e-06 -0.0027737541555175435 -0.00028371070309663056" pbc="T T T"
Sr       0.00003612       0.00009431      10.47321157      -0.00011236       0.00134674       0.25684369
Sr       3.94085191       2.36455593      15.06743859      -0.00004499       0.04408722       0.23771854
Ti       1.97047269       1.97057450      12.01299686      -0.00000951      -0.20441067      -0.16123105
Ti       1.97020076       0.39403080      16.56990623       0.00021340       0.05338253      -0.09210154
O        0.00000902       1.97050521      12.26792640      -0.00003291       0.14173052      -0.18580283
O        0.00018798       0.39409860      16.70318695      -0.00019180       0.00838720       0.01005918
O        1.97049401       3.94093312      11.97500326       0.00001723      -0.22474758       0.03574810
O        1.97057142       2.36457436      16.68495237       0.00026354      -0.00506944       0.01119741
O        1.97043419       1.97038596      10.17727798       0.00006813      -0.04819224      -0.11715617
O        1.97054157       0.39404688      14.74341974      -0.00017124       0.23348573       0.00472466
10
Lattice="3.940949890606662 0.0 0.0 0.0 3.940949890606662 0.0 0.0 0.0 26.940967945119528" Properties=species:S:1:pos:R:3:forces:R:3 energy=-15499.480518574755 free_energy=-15499.480518574755 stress="0.011293338666953256 -0.0 -1.8363152303989035e-06 -0.0 0.011949821361820863 -0.0025258515994136914 -1.8363152303989035e-06 -0.0025258515994136914 -0.0007877792338411295" pbc="T T T"
Sr       0.00003612       0.00009431      10.46218143      -0.00011724       0.00157017       0.20306393
Sr       3.94085191       2.36455593      15.09757090      -0.00004397       0.03892676       0.11103258
Ti       1.97047269       1.97057450      11.98926099       0.00000000      -0.18830940      -0.14870232
Ti       1.97020076       0.39403080      16.59033931       0.00030005       0.04853317      -0.08591033
O        0.00000902       1.97050521      12.22912671      -0.00003780       0.13391976      -0.07657182
O        0.00018798       0.39409860      16.71707084      -0.00028488       0.00704971       0.08097664
O        1.97049401       3.94093312      11.96000789       0.00001671      -0.20575253       0.10634854
O        1.97057142       2.36457436      16.69994630       0.00024246      -0.00469098       0.08469599
O        1.97043419       1.97038596      10.15935863       0.00007585      -0.04290606      -0.16736596
O        1.97054157       0.39404688      14.77045695      -0.00015144       0.21165964      -0.10756750
10
Lattice="3.940949890606662 0.0 0.0 0.0 3.940949890606662 0.0 0.0 0.0 26.940967945119528" Properties=species:S:1:pos:R:3:forces:R:3 energy=-15499.487704693065 free_energy=-15499.487704693065 stress="0.010570748623791287 0.0 -1.8363152303989035e-06 0.0 0.01123733105242609 -0.0022917214075378316 -1.8363152303989035e-06 -0.0022917214075378316 -0.0007538074020787497" pbc="T T T"
Sr       0.00003612       0.00009431      10.45184818      -0.00012444       0.00184194       0.11093102
Sr       3.94085191       2.36455593      15.12892028      -0.00005142       0.03429440      -0.00050085
Ti       1.97047269       1.97057450      11.96025354       0.00000694      -0.17186359      -0.10393016
Ti       1.97020076       0.39403080      16.60984043       0.00036947       0.04382600      -0.05346995
O        0.00000902       1.97050521      12.19494530      -0.00003677       0.12573620      -0.03467184
O        0.00018798       0.39409860      16.73769314      -0.00033450       0.00592691       0.09465439
O        1.97049401       3.94093312      11.94361358       0.00001646      -0.18860327       0.14396969
O        1.97057142       2.36457436      16.72154576       0.00022369      -0.00439427       0.10163288
O        1.97043419       1.97038596      10.13365127       0.00007919      -0.03782710      -0.13250180
O        1.97054157       0.39404688      14.79300849      -0.00014887       0.19106279      -0.12611312
10
Lattice="3.940949890606662 0.0 0.0 0.0 3.940949890606662 0.0 0.0 0.0 26.940967945119528" Properties=species:S:1:pos:R:3:forces:R:3 energy=-15499.491639323112 free_energy=-15499.491639323112 stress="0.010317337121996239 -0.0 -1.8363152303989035e-06 -0.0 0.011023400328084618 -0.002124616721571531 -1.8363152303989035e-06 -0.002124616721571531 -0.00025341150179504865" pbc="T T T"
Sr       0.00003612       0.00009431      10.44126441      -0.00012907       0.00205405       0.03946335
Sr       3.94085191       2.36455593      15.15220290      -0.00006608       0.03153741      -0.04902502
Ti       1.97047269       1.97057450      11.93364991       0.00001363      -0.15861367      -0.04800738
Ti       1.97020076       0.39403080      16.62666785       0.00039158       0.04038535      -0.02050635
O        0.00000902       1.97050521      12.16723566      -0.00003548       0.11855305      -0.03351613
O        0.00018798       0.39409860      16.75966560      -0.00033476       0.00514581       0.06187874
O        1.97049401       3.94093312      11.93275059       0.00001594      -0.17726548       0.12609847
O        1.97057142       2.36457436      16.74459094       0.00022343      -0.00418216       0.06966970
O        1.97043419       1.97038596      10.10795715       0.00008305      -0.03386657      -0.06114366
O        1.97054157       0.39404688      14.80933494      -0.00016249       0.17625246      -0.08491171
10
Lattice="3.940949890606662 0.0 0.0 0.0 3.940949890606662 0.0 0.0 0.0 26.940967945119528" Properties=species:S:1:pos:R:3:forces:R:3 energy=-15499.49316710626 free_energy=-15499.49316710626 stress="0.010309991861074643 -0.0 -1.8363152303989035e-06 -0.0 0.01117122370413173 -0.0020621820037379683 -1.8363152303989035e-06 -0.0020621820037379683 0.00019740388726788213" pbc="T T T"
Sr       0.00003612       0.00009431      10.43555941      -0.00013035       0.00214404       0.01206644
Sr       3.94085191       2.36455593      15.16099516      -0.00007688       0.03093448      -0.04402963
Ti       1.97047269       1.97057450      11.91978720       0.00002031      -0.15237669      -0.01194894
Ti       1.97020076       0.39403080      16.63525378       0.00038078       0.03942915      -0.00359260
O        0.00000902       1.97050521      12.15123866      -0.00003497       0.11459535      -0.03429877
O        0.00018798       0.39409860      16.77231238      -0.00031702       0.00472312       0.02449927
O        1.97049401       3.94093312      11.93194644       0.00001131      -0.17414879       0.07923857
O        1.97057142       2.36457436      16.75813697       0.00023089      -0.00414513       0.03053802
O        1.97043419       1.97038596      10.09395151       0.00008510      -0.03203337      -0.01219783
O        1.97054157       0.39404688      14.81613845      -0.00016892       0.17087757      -0.04027453
10
Lattice="3.940949890606662 0.0 0.0 0.0 3.940949890606662 0.0 0.0 0.0 26.940967945119528" Properties=species:S:1:pos:R:3:forces:R:3 energy=-15499.493846302403 free_energy=-15499.493846302403 stress="0.010303564757768247 -0.0 -1.8363152303989035e-06 -0.0 0.011388827058934 -0.0020686091070443646 -1.8363152303989035e-06 -0.0020686091070443646 0.00039939856261176146" pbc="T T T"
Sr       0.00003612       0.00009431      10.43580478      -0.00013087       0.00221115       0.00613234
Sr       3.94085191       2.36455593      15.16017607      -0.00008253       0.03147879      -0.02362021
Ti       1.97047269       1.97057450      11.91681401       0.00002160      -0.15098032       0.00185042
Ti       1.97020076       0.39403080      16.63640297       0.00036433       0.03962738      -0.00005142
O        0.00000902       1.97050521      12.14465461      -0.00003677       0.11329412      -0.02397554
O        0.00018798       0.39409860      16.77534234      -0.00029953       0.00460433       0.00203760
O        1.97049401       3.94093312      11.93769685       0.00001028      -0.17637845       0.03390179
O        1.97057142       2.36457436      16.76176057       0.00023911      -0.00417161       0.00566671
O        1.97043419       1.97038596      10.09083696       0.00008793      -0.03162303       0.00850238
O        1.97054157       0.39404688      14.81583081      -0.00017355       0.17193790      -0.01044434
10
Lattice="3.940949890606662 0.0 0.0 0.0 3.940949890606662 0.0 0.0 0.0 26.940967945119528" Properties=species:S:1:pos:R:3:forces:R:3 energy=-15499.494163859254 free_energy=-15499.494163859254 stress="0.010238375567089085 -0.0 -1.8363152303989035e-06 -0.0 0.011540323065441909 -0.0021108443573435395 -1.8363152303989035e-06 -0.0021108443573435395 0.00036450857323418233" pbc="T T T"
Sr       0.00003612       0.00009431      10.44053045      -0.00013113       0.00225614       0.00614211
Sr       3.94085191       2.36455593      15.15442039      -0.00008279       0.03244784      -0.00495246
Ti       1.97047269       1.97057450      11.92071201       0.00002288      -0.15241371       0.00261970
Ti       1.97020076       0.39403080      16.63241189       0.00035096       0.04032313       0.00038412
O        0.00000902       1.97050521      12.14501437      -0.00003805       0.11378751      -0.00840648
O        0.00018798       0.39409860      16.77173918      -0.00028976       0.00468995      -0.00607500
O        1.97049401       3.94093312      11.94602830       0.00000977      -0.18134813       0.00146784
O        1.97057142       2.36457436      16.75842393       0.00024323      -0.00421841      -0.00445726
O        1.97043419       1.97038596      10.09487277       0.00008922      -0.03209354       0.00925006
O        1.97054157       0.39404688      14.81116668      -0.00017432       0.17656871       0.00402763
