10
Lattice="3.940949890606662 0.0 0.0 0.0 3.940949890606662 0.0 0.0 0.0 26.940967945119528" Properties=species:S:1:pos:R:3:forces:R:3 tau=tau00 tau_p=0 tau_q=0 stage=A constraint=rigid_scf force_label=raw_dft energy=-15500.723239074105 free_energy=-15500.723239074105 stress="0.009246765342673678 0.0 -0.0 0.0 0.008963972797192247 0.0 -0.0 0.0 0.00021943967003266895" pbc="T T T"
Sr       0.00003626       0.00009419      10.75260867      -0.00007405       0.00002340       0.01706981
Sr       3.94085176       3.94093570      14.64522241      -0.00009153      -0.00003368      -0.00908474
Ti       1.97047258       1.97057465      12.38212169       0.00000617      -0.00008433      -0.00669490
Ti       1.97020066       1.97041071      16.28444791      -0.00087675      -0.00010567       0.00625267
O        0.00000906       1.97050529      12.45001441      -0.00002005      -0.00011596      -0.00195147
O        0.00018798       1.97047849      16.39256827       0.00061269       0.00001414      -0.02222693
O        1.97049386       3.94093294      12.44909065       0.00000977      -0.00000283      -0.00052810
O        1.97057150       0.00000434      16.37955485       0.00042835       0.00007996       0.01550067
O        1.97043435       1.97038588      10.49176941       0.00011133       0.00011493      -0.00642544
O        1.97054155       1.97042687      14.44792112      -0.00010593       0.00011030       0.00808869
