10
Lattice="3.940949890606662 0.0 0.0 0.0 3.940949890606662 0.0 0.0 0.0 26.940967945119528" Properties=species:S:1:pos:R:3:forces:R:3 tau=tau23 tau_p=2 tau_q=3 stage=B constraint=xy_fixed_z_free force_label=raw_dft energy=-15498.235342248014 free_energy=-15498.235342248014 stress="0.009623209964905453 0.0019079315243844606 0.006842110548466314 0.0019079315243844606 0.01448669085261695 0.012763309008887579 0.006842110548466314 0.012763309008887579 -0.015697740747065026" pbc="T T T"
Sr       0.00003626       0.00009419      10.75260867      -0.00360931       0.00623441       0.40422344
Sr       0.78809185       1.18227078      14.64522241      -1.03350042      -1.04595639       3.41203259
Ti       1.97047258       1.97057465      12.38212169       1.21103253       0.88911576      -2.45924475
Ti       2.75839063       3.15269568      16.28444791      -0.04645546      -0.12211043      -0.18984409
O        0.00000906       1.97050529      12.45001441       0.66889537      -0.35496136      -0.77444661
O        0.78837796       3.15276346      16.39256827       0.00979256       0.00300922      -0.08548404
O        1.97049386       3.94093294      12.44909065      -0.83227201       1.45420181      -1.44288638
O        2.75876148       1.18228930      16.37955485       0.08077789       0.01400094      -0.12665537
O        1.97043435       1.97038588      10.49176941       0.14875143       0.22280409       0.32650131
O        2.75873153       3.15271183      14.44792112      -0.20341257      -1.06633804       0.93580365
10
Lattice="3.940949890606662 0.0 0.0 0.0 3.940949890606662 0.0 0.0 0.0 26.940967945119528" Properties=species:S:1:pos:R:3:forces:R:3 tau=tau23 tau_p=2 tau_q=3 stage=B constraint=xy_fixed_z_free force_label=raw_dft energy=-15498.599689072278 free_energy=-15498.599689072278 stress="0.007822702881499327 0.0017123639523469773 0.006037804477551594 0.0017123639523469773 0.011643156718344245 0.010844359593120724 0.006037804477551594 0.010844359593120724 -0.01765341646743986" pbc="T T T"
Sr       0.00003612       0.00009431      10.76092833      -0.00352190       0.00607449       0.43197413
Sr       0.78809198       1.18227095      14.71544819      -0.84533912      -0.79404022       2.39491215
Ti       1.97047269       1.97057450      12.33150648       0.93821894       0.70882409      -1.11450611
Ti       2.75839074       3.15269575      16.28054060      -0.04081523      -0.10655911       0.08587227
O        0.00000902       1.97050521      12.43407502       0.68905359      -0.39257326      -0.63986762
O        0.78837796       3.15276354      16.39080892       0.00954393       0.00227337       0.02759539
O        1.97049401       3.94093312      12.41939356      -0.75702147       1.28442261      -1.28955350
O        2.75876140       1.18228938      16.37694802       0.07301984       0.01620052       0.00473623
O        1.97043419       1.97038596      10.49848935       0.14108800       0.20380209      -0.48246237
O        2.75873155       3.15271182      14.46718150      -0.20422658      -0.92842458       0.58129943
10
Lattice="3.940949890606662 0.0 0.0 0.0 3.940949890606662 0.0 0.0 0.0 26.940967945119528" Properties=species:S:1:pos:R:3:forces:R:3 tau=tau23 tau_p=2 tau_q=3 stage=B constraint=xy_fixed_z_free force_label=raw_dft energy=-15498.85241139851 free_energy=-15498.85241139851 stress="0.005557608044802281 0.0015011877008511037 0.0054575288647455405 0.0015011877008511037 0.008442459271758958 0.00917882167914892 0.0054575288647455405 0.00917882167914892 -0.018300717586155472" pbc="T T T"
Sr       0.00003612       0.00009431      10.77413551      -0.00579398       0.00316811       0.24593399
Sr       0.78809198       1.18227095      14.79269623      -0.70501346      -0.59954938       1.38736212
Ti       1.97047269       1.97057450      12.29256202       0.74350133       0.58744308      -0.41172695
Ti       2.75839074       3.15269575      16.28223709      -0.03510636      -0.09190100       0.23642913
O        0.00000902       1.97050521      12.41390767       0.69054354      -0.41337580      -0.41790094
O        0.78837796       3.15276354      16.39126994       0.00856614       0.00189773       0.20141534
O        1.97049401       3.94093312      12.37915472      -0.66918616       1.11567674      -0.98144124
O        2.75876140       1.18228938      16.37664213       0.06457274       0.01657539       0.19880567
O        1.97043419       1.97038596      10.48641327       0.12817104       0.18213541      -0.80254774
O        2.75873155       3.15271182      14.48630138      -0.22025484      -0.80207054       0.34367062
10
Lattice="3.940949890606662 0.0 0.0 0.0 3.940949890606662 0.0 0.0 0.0 26.940967945119528" Properties=species:S:1:pos:R:3:forces:R:3 tau=tau23 tau_p=2 tau_q=3 stage=B constraint=xy_fixed_z_free force_label=raw_dft energy=-15499.04866779025 free_energy=-15499.04866779025 stress="0.001447016401554336 0.0012395127805192598 0.004787273805649941 0.0012395127805192598 0.003191515870433294 0.007136839142945339 0.004787273805649941 0.007136839142945339 -0.01781868483817576" pbc="T T T"
Sr       0.00003612       0.00009431      10.79305231      -0.01009647      -0.00292077      -0.24276870
Sr       0.78809198       1.18227095      14.90856830      -0.54533998      -0.39569740       0.03675675
Ti       1.97047269       1.97057450      12.24237536       0.54382997       0.46778008      -0.15846712
Ti       2.75839074       3.15269575      16.29260272      -0.02911440      -0.07314711       0.34940238
O        0.00000902       1.97050521      12.38186818       0.65689680      -0.40981739      -0.09670202
O        0.78837796       3.15276354      16.40033517       0.00762538       0.00141076       0.50170784
O        1.97049401       3.94093312      12.30898384      -0.53402018       0.88183722      -0.41388127
O        2.75876140       1.18228938      16.38503242       0.05197099       0.01596706       0.52675270
O        1.97043419       1.97038596      10.44684084       0.10475883       0.14961995      -0.63649407
O        2.75873155       3.15271182      14.51566083      -0.24651069      -0.63503240       0.13369376
10
Lattice="3.940949890606662 0.0 0.0 0.0 3.940949890606662 0.0 0.0 0.0 26.940967945119528" Properties=species:S:1:pos:R:3:forces:R:3 tau=tau23 tau_p=2 tau_q=3 stage=B constraint=xy_fixed_z_free force_label=raw_dft energy=-15499.095257216906 free_energy=-15499.095257216906 stress="0.0003773627798469746 0.001140351758077719 0.004572424923693269 0.001140351758077719 0.0016921644848125895 0.006429857779241761 0.004572424923693269 0.006429857779241761 -0.016564481535813306" pbc="T T T"
Sr       0.00003612       0.00009431      10.79259258      -0.01149180      -0.00525456      -0.45419026
Sr       0.78809198       1.18227095      14.94993759      -0.49267633      -0.33572642      -0.34795896
Ti       1.97047269       1.97057450      12.21782923       0.48351575       0.43278351      -0.19186857
Ti       2.75839074       3.15269575      16.30438047      -0.02832687      -0.06757296       0.36317783
O        0.00000902       1.97050521      12.36850781       0.63530082      -0.39924116      -0.02468902
O        0.78837796       3.15276354      16.41619101       0.00771074       0.00099399       0.55764656
O        1.97049401       3.94093312      12.27498457      -0.47741041       0.79082968      -0.18831557
O        2.75876140       1.18228938      16.40127583       0.04679485       0.01530706       0.58892455
O        1.97043419       1.97038596      10.41989412       0.09403707       0.13626564      -0.42368001
O        2.75873155       3.15271182      14.52972677      -0.25745356      -0.56838503       0.12095343
10
Lattice="3.940949890606662 0.0 0.0 0.0 3.940949890606662 0.0 0.0 0.0 26.940967945119528" Properties=species:S:1:pos:R:3:forces:R:3 tau=tau23 tau_p=2 tau_q=3 stage=B constraint=xy_fixed_z_free force_label=raw_dft energy=-15499.157528972257 free_energy=-15499.157528972257 stress="0.0003140099043982125 0.0010118096919497957 0.004347476307969404 0.0010118096919497957 0.0010788351978593556 0.00565952354008942 0.004347476307969404 0.00565952354008942 -0.014155235953529946" pbc="T T T"
Sr       0.00003612       0.00009431      10.77841161      -0.01259095      -0.00757447      -0.64168873
Sr       0.78809198       1.18227095      14.99074523      -0.43764212      -0.27744749      -0.58911738
Ti       1.97047269       1.97057450      12.18029223       0.42176093       0.39669396      -0.17951134
Ti       2.75839074       3.15269575      16.32822928      -0.02820706      -0.06167588       0.37376615
O        0.00000902       1.97050521      12.35146519       0.60449566      -0.38098812      -0.02493713
O        0.78837796       3.15276354      16.45051765       0.00807815       0.00041960       0.51442144
O        1.97049401       3.94093312      12.22947834      -0.40939136       0.68479224       0.02744833
O        2.75876140       1.18228938      16.43691236       0.04067100       0.01410764       0.54584931
O        1.97043419       1.97038596      10.37842020       0.08046473       0.11988463      -0.18075601
O        2.75873155       3.15271182      14.55084788      -0.26763873      -0.48821187       0.15452536
10
Lattice="3.940949890606662 0.0 0.0 0.0 3.940949890606662 0.0 0.0 0.0 26.940967945119528" Properties=species:S:1:pos:R:3:forces:R:3 tau=tau23 tau_p=2 tau_q=3 stage=B constraint=xy_fixed_z_free force_label=raw_dft energy=-15499.246579994695 free_energy=-15499.246579994695 stress="0.0018959954753868678 0.0008290963265251049 0.004072029023409568 0.0008290963265251049 0.0018684507469308841 0.004748711185811564 0.004072029023409568 0.004748711185811564 -0.009960173809683653" pbc="T T T"
Sr       0.00003612       0.00009431      10.73801928      -0.01257578      -0.00943055      -0.76934683
Sr       0.78809198       1.18227095      15.03456350      -0.37645193      -0.21661416      -0.62924253
Ti       1.97047269       1.97057450      12.11992519       0.35357708       0.35404913      -0.10012621
Ti       2.75839074       3.15269575      16.37496822      -0.02926224      -0.05631642       0.37284724
O        0.00000902       1.97050521      12.32467733       0.55546010      -0.34932216      -0.12244185
O        0.78837796       3.15276354      16.51594375       0.00841111       0.00011956       0.32961928
O        1.97049401       3.94093312      12.16293155      -0.32476530       0.55432907       0.22382867
O        2.75876140       1.18228938      16.50517170       0.03305230       0.01239863       0.35247587
O        1.97043419       1.97038596      10.31180354       0.06311621       0.09875119       0.09386738
O        2.75873155       3.15271182      14.58731591      -0.27056181      -0.38796455       0.24851949
10
Lattice="3.940949890606662 0.0 0.0 0.0 3.940949890606662 0.0 0.0 0.0 26.940967945119528" Properties=species:S:1:pos:R:3:forces:R:3 tau=tau23 tau_p=2 tau_q=3 stage=B constraint=xy_fixed_z_free force_label=raw_dft energy=-15499.335178355766 free_energy=-15499.335178355766 stress="0.0056393240725550325 0.0006133292869532338 0.003774545956084946 0.0006133292869532338 0.004625678065374838 0.003907678810288867 0.003774545956084946 0.003907678810288867 -0.004582524657460464" pbc="T T T"
Sr       0.00003612       0.00009431      10.66227921      -0.01066468      -0.00930508      -0.71394778
Sr       0.78809198       1.18227095      15.07058592      -0.32307891      -0.16872247      -0.37882145
Ti       1.97047269       1.97057450      12.04301234       0.29227709       0.31184036       0.05128528
Ti       2.75839074       3.15269575      16.44752654      -0.03035881      -0.05140792       0.35442349
O        0.00000902       1.97050521      12.28568081       0.49127791      -0.30644953      -0.31042497
O        0.78837796       3.15276354      16.60942753       0.00842962      -0.00005888       0.02568583
O        1.97049401       3.94093312      12.08461285      -0.24484847       0.42981440       0.30121116
O        2.75876140       1.18228938      16.60298176       0.02621111       0.01017591       0.03103861
O        1.97043419       1.97038596      10.22728438       0.04679922       0.07734701       0.28706547
O        2.75873155       3.15271182      14.64192863      -0.25604382      -0.29323380       0.35248436
10
Lattice="3.940949890606662 0.0 0.0 0.0 3.940949890606662 0.0 0.0 0.0 26.940967945119528" Properties=species:S:1:pos:R:3:forces:R:3 tau=tau23 tau_p=2 tau_q=3 stage=B constraint=xy_fixed_z_free force_label=raw_dft energy=-15499.381729278317 free_energy=-15499.381729278317 stress="0.008953873063425053 0.00047376932944291703 0.0036138683734250423 0.00047376932944291703 0.007390250644740386 0.0035523518132066782 0.0036138683734250423 0.0035523518132066782 -0.0013570369552647896" pbc="T T T"
Sr       0.00003612       0.00009431      10.59366346      -0.00802107      -0.00752639      -0.49898659
Sr       0.78809198       1.18227095      15.08234330      -0.30055193      -0.15302280      -0.08361407
Ti       1.97047269       1.97057450      11.99702229       0.26585130       0.29046807       0.13932397
Ti       2.75839074       3.15269575      16.50575436      -0.03112912      -0.04933073       0.26663240
O        0.00000902       1.97050521      12.25168893       0.44649392      -0.27611128      -0.41057535
O        0.78837796       3.15276354      16.67202544       0.00806092       0.00036587      -0.14118802
O        1.97049401       3.94093312      12.04096105      -0.20712601       0.37001311       0.24758669
O        2.75876140       1.18228938      16.66861107       0.02296586       0.00893664      -0.14864807
O        1.97043419       1.97038596      10.17665755       0.03958805       0.06637688       0.27427937
O        2.75873155       3.15271182      14.68659251      -0.23613191      -0.25016937       0.35518993
10
Lattice="3.940949890606662 0.0 0.0 0.0 3.940949890606662 0.0 0.0 0.0 26.940967945119528" Properties=species:S:1:pos:R:3:forces:R:3 tau=tau23 tau_p=2 tau_q=3 stage=B constraint=xy_fixed_z_free force_label=raw_dft energy=-15499.411586152919 free_energy=-15499.411586152919 stress="0.011499005972757931 0.0003663448884645812 0.0035036894596011075 0.0003663448884645812 0.009789396493256554 0.0033990194914683704 0.0035036894596011075 0.0033990194914683704 0.0004967232698229034" pbc="T T T"
Sr       0.00003612       0.00009431      10.52956489      -0.00543557      -0.00511495      -0.21133105
Sr       0.78809198       1.18227095      15.08700872      -0.28875623      -0.14977344       0.17184585
Ti       1.97047269       1.97057450      11.96922358       0.25367095       0.27690935       0.13276560
Ti       2.75839074       3.15269575      16.55634239      -0.03104016      -0.04815805       0.11614444
O        0.00000902       1.97050521      12.21523796       0.40791014      -0.24999685      -0.40909388
O        0.78837796       3.15276354      16.71458719       0.00737110       0.00128247      -0.18654536
O        1.97049401       3.94093312      12.01601506      -0.18623092       0.33569146       0.16485425
O        2.75876140       1.18228938      16.71322107       0.02113910       0.00786886      -0.20217124
O        1.97043419       1.97038596      10.14539865       0.03626335       0.05944648       0.16103770
O        2.75873155       3.15271182      14.72872044      -0.21489152      -0.22815558       0.26249395
10
Lattice="3.940949890606662 0.0 0.0 0.0 3.940949890606662 0.0 0.0 0.0 26.940967945119528" Properties=species:S:1:pos:R:3:forces:R:3 tau=tau23 tau_p=2 tau_q=3 stage=B constraint=xy_fixed_z_free force_label=raw_dft energy=-15499.427039225704 free_energy=-15499.427039225704 stress="0.012362074131045418 0.0003057464858614174 0.003421055274233157 0.0003057464858614174 0.010909548783799886 0.003359538714014794 0.003421055274233157 0.003359538714014794 0.0007942063371475257" pbc="T T T"
Sr       0.00003612       0.00009431      10.49068904      -0.00369468      -0.00347125      -0.00432460
Sr       0.78809198       1.18227095      15.09321849      -0.28142961      -0.15153748       0.27391685
Ti       1.97047269       1.97057450      11.95953308       0.24934738       0.26981542       0.05935237
Ti       2.75839074       3.15269575      16.58525239      -0.03047349      -0.04799324       0.00220626
O        0.00000902       1.97050521      12.18503769       0.38035975      -0.23183869      -0.32802957
O        0.78837796       3.15276354      16.73075747       0.00682294       0.00214739      -0.13312067
O        1.97049401       3.94093312      12.00896336      -0.17816434       0.32103180       0.11709292
O        2.75876140       1.18228938      16.72997952       0.02030606       0.00723534      -0.15116698
O        1.97043419       1.97038596      10.13446628       0.03568794       0.05584565       0.03556453
O        2.75873155       3.15271182      14.75742265      -0.19876196      -0.22123494       0.12850862
10
Lattice="3.940949890606662 0.0 0.0 0.0 3.940949890606662 0.0 0.0 0.0 26.940967945119528" Properties=species:S:1:pos:R:3:forces:R:3 tau=tau23 tau_p=2 tau_q=3 stage=B constraint=xy_fixed_z_free force_label=raw_dft energy=-15499.437128934725 free_energy=-15499.437128934725 stress="0.012144470776243149 0.00026626570840784103 0.003306285572333226 0.00026626570840784103 0.011138170029984549 0.0033127126756396217 0.003306285572333226 0.0033127126756396217 0.0003589996275429856" pbc="T T T"
Sr       0.00003612       0.00009431      10.46696559      -0.00256493      -0.00253588       0.11669183
Sr       0.78809198       1.18227095      15.10792588      -0.27007408      -0.15146883       0.24995468
Ti       1.97047269       1.97057450      11.95391172       0.24331121       0.26148479      -0.02582210
Ti       2.75839074       3.15269575      16.60296881      -0.02893802      -0.04707227      -0.06831241
O        0.00000902       1.97050521      12.15576521       0.35446051      -0.21556900      -0.21563662
O        0.78837796       3.15276354      16.73631185       0.00629483       0.00293903      -0.03862054
O        1.97049401       3.94093312      12.00742107      -0.17332861       0.31062629       0.09926387
O        2.75876140       1.18228938      16.73529399       0.01939666       0.00681291      -0.05541833
O        1.97043419       1.97038596      10.12913951       0.03566969       0.05268679      -0.06280048
O        2.75873155       3.15271182      14.77961635      -0.18422751      -0.21790382       0.00070011
10
Lattice="3.940949890606662 0.0 0.0 0.0 3.940949890606662 0.0 0.0 0.0 26.940967945119528" Properties=species:S:1:pos:R:3:forces:R:3 tau=tau23 tau_p=2 tau_q=3 stage=B constraint=xy_fixed_z_free force_label=raw_dft energy=-15499.443839534104 free_energy=-15499.443839534104 stress="0.011314456292102842 0.0002433117680278547 0.003146526147288521 0.0002433117680278547 0.010749789358755181 0.0032163061260436793 0.003146526147288521 0.0032163061260436793 -0.00027636544217503496" pbc="T T T"
Sr       0.00003612       0.00009431      10.45428948      -0.00203606      -0.00222966       0.14161251
Sr       0.78809198       1.18227095      15.13082800      -0.25328297      -0.14719848       0.13644896
Ti       1.97047269       1.97057450      11.94519971       0.23278382       0.24970168      -0.08030661
Ti       2.75839074       3.15269575      16.61400960      -0.02687497      -0.04497811      -0.07944683
O        0.00000902       1.97050521      12.12820124       0.32963034      -0.20047200      -0.11496662
O        0.78837796       3.15276354      16.74056594       0.00580915       0.00343448       0.04698614
O        1.97049401       3.94093312      12.00523103      -0.16830133       0.29948364       0.09757876
O        2.75876140       1.18228938      16.73891942       0.01817590       0.00652649       0.03361846
O        1.97043419       1.97038596      10.12157871       0.03510636       0.04914201      -0.10318300
O        2.75873155       3.15271182      14.79649684      -0.17100998      -0.21340979      -0.07834203
10
Lattice="3.940949890606662 0.0 0.0 0.0 3.940949890606662 0.0 0.0 0.0 26.940967945119528" Properties=species:S:1:pos:R:3:forces:R:3 tau=tau23 tau_p=2 tau_q=3 stage=B constraint=xy_fixed_z_free force_label=raw_dft energy=-15499.448214308286 free_energy=-15499.448214308286 stress="0.010476178389425743 0.00022586677333906514 0.0029610583090182315 0.00022586677333906514 0.010235621094243487 0.0030721553804573657 0.0029610583090182315 0.0030721553804573657 -0.0006059840260316382" pbc="T T T"
Sr       0.00003612       0.00009431      10.44511463      -0.00189053      -0.00226694       0.10370390
Sr       0.78809198       1.18227095      15.15721733      -0.23358935      -0.13964227       0.00905054
Ti       1.97047269       1.97057450      11.92972439       0.21854531       0.23507725      -0.08926819
Ti       2.75839074       3.15269575      16.62455069      -0.02449259      -0.04237949      -0.05168509
O        0.00000902       1.97050521      12.10215761       0.30620887      -0.18625868      -0.05203836
O        0.78837796       3.15276354      16.75100291       0.00536846       0.00364942       0.08725784
O        1.97049401       3.94093312      11.99877395      -0.16158946       0.28584908       0.09248567
O        2.75876140       1.18228938      16.74879280       0.01664635       0.00634137       0.07757173
O        1.97043419       1.97038596      10.10715531       0.03359712       0.04514343      -0.08635256
O        2.75873155       3.15271182      14.81083034      -0.15880444      -0.20551316      -0.09072575
10
Lattice="3.940949890606662 0.0 0.0 0.0 3.940949890606662 0.0 0.0 0.0 26.940967945119528" Properties=species:S:1:pos:R:3:forces:R:3 tau=tau23 tau_p=2 tau_q=3 stage=B constraint=xy_fixed_z_free force_label=raw_dft energy=-15499.450899935819 free_energy=-15499.450899935819 stress="0.010051989571203597 0.00020842177865027553 0.0027893628349759344 0.00020842177865027553 0.01001342695136522 0.0029224956891798545 0.0027893628349759344 0.0029224956891798545 -0.0004333703943741412" pbc="T T T"
Sr       0.00003612       0.00009431      10.43473532      -0.00186379      -0.00238290       0.05110350
Sr       0.78809198       1.18227095      15.18031008      -0.21569807      -0.13192125      -0.06559347
Ti       1.97047269       1.97057450      11.90972422       0.20435077       0.22081740      -0.06226492
Ti       2.75839074       3.15269575      16.63727512      -0.02251746      -0.03977599      -0.01427014
O        0.00000902       1.97050521      12.07855691       0.28612162      -0.17393821      -0.02855030
O        0.78837796       3.15276354      16.76825291       0.00504759       0.00365045       0.07461110
O        1.97049401       3.94093312      11.98905146      -0.15421014       0.27186433       0.07342608
O        2.75876140       1.18228938      16.76575048       0.01521425       0.00611537       0.06758170
O        1.97043419       1.97038596      10.08762953       0.03167213       0.04128986      -0.04102401
O        2.75873155       3.15271182      14.82403393      -0.14811688      -0.19571931      -0.05501981
10
Lattice="3.940949890606662 0.0 0.0 0.0 3.940949890606662 0.0 0.0 0.0 26.940967945119528" Properties=species:S:1:pos:R:3:forces:R:3 tau=tau23 tau_p=2 tau_q=3 stage=B constraint=xy_fixed_z_free force_label=raw_dft energy=-15499.45215057102 free_energy=-15499.45215057102 stress="0.010061171147355592 0.0001955675720374832 0.002677347605921601 0.0001955675720374832 0.01014839612079954 0.002823334666738314 0.002677347605921601 0.002823334666738314 -1.2854206612792324e-05" pbc="T T T"
Sr       0.00003612       0.00009431      10.42495195      -0.00182060      -0.00240450       0.02093572
Sr       0.78809198       1.18227095      15.19329029      -0.20451712      -0.12720250      -0.06883460
Ti       1.97047269       1.97057450      11.89321834       0.19528660       0.21104875      -0.02745064
Ti       2.75839074       3.15269575      16.64887066      -0.02142500      -0.03808575       0.01077549
O        0.00000902       1.97050521      12.06154711       0.27301619      -0.16576211      -0.02802400
O        0.78837796       3.15276354      16.78483847       0.00484113       0.00363940       0.03537015
O        1.97049401       3.94093312      11.98129813      -0.14909802       0.26244921       0.04538280
O        2.75876140       1.18228938      16.78222915       0.01423826       0.00592974       0.02957180
O        1.97043419       1.97038596      10.07114291       0.03022640       0.03869767      -0.00375098
O        2.75873155       3.15271182      14.83393295      -0.14074810      -0.18830991      -0.01397549
10
Lattice="3.940949890606662 0.0 0.0 0.0 3.940949890606662 0.0 0.0 0.0 26.940967945119528" Properties=species:S:1:pos:R:3:forces:R:3 tau=tau23 tau_p=2 tau_q=3 stage=B constraint=xy_fixed_z_free force_label=raw_dft energy=-15499.452545272141 free_energy=-15499.452545272141 stress="0.010192467686329114 0.00018914046873108706 0.002636948670852825 0.00018914046873108706 0.010370590263677806 0.0027957899382823307 0.002636948670852825 0.0027957899382823307 0.00025524781702544757" pbc="T T T"
Sr       0.00003612       0.00009431      10.42026683      -0.00183268      -0.00240835       0.01560968
Sr       0.78809198       1.18227095      15.19573642      -0.20092606      -0.12625428      -0.04171358
Ti       1.97047269       1.97057450      11.88635202       0.19265379       0.20771608      -0.00738395
Ti       2.75839074       3.15269575      16.65461551      -0.02113010      -0.03775202       0.01385722
O        0.00000902       1.97050521      12.05378351       0.26804110      -0.16256391      -0.02772523
O        0.78837796       3.15276354      16.79273936       0.00476580       0.00366999       0.00901866
O        1.97049401       3.94093312      11.97942215      -0.14776207       0.25993544       0.02379993
O        2.75876140       1.18228938      16.78999235       0.01389013       0.00584566       0.00395436
O        1.97043419       1.97038596      10.06432748       0.02978854       0.03772451       0.00683553
O        2.75873155       3.15271182      14.83808433      -0.13748846      -0.18591313       0.00374790
10
Lattice="3.940949890606662 0.0 0.0 0.0 3.940949890606662 0.0 0.0 0.0 26.940967945119528" Properties=species:S:1:pos:R:3:forces:R:3 tau=tau23 tau_p=2 tau_q=3 stage=B constraint=xy_fixed_z_free force_label=raw_dft energy=-15499.452722282193 free_energy=-15499.452722282193 stress="0.010256738719393074 0.00018730415350068813 0.0026323578827768283 0.00018730415350068813 0.010523922585416115 0.0028058896720495243 0.0026323578827768283 0.0028058896720495243 0.000341554632854196" pbc="T T T"
Sr       0.00003612       0.00009431      10.42006058      -0.00187819      -0.00245540       0.01473345
Sr       0.78809198       1.18227095      15.19360040      -0.20085766      -0.12710866      -0.01652499
Ti       1.97047269       1.97057450      11.88542161       0.19311479       0.20755333       0.00109812
Ti       2.75839074       3.15269575      16.65585765      -0.02113421      -0.03799448       0.00886208
O        0.00000902       1.97050521      12.05108756       0.26717130      -0.16191111      -0.02109539
O        0.78837796       3.15276354      16.79440285       0.00475731       0.00372964      -0.00241967
O        1.97049401       3.94093312      11.98143034      -0.14863984       0.26132873       0.00985864
O        2.75876140       1.18228938      16.79139620       0.01385979       0.00583512      -0.00651440
O        1.97043419       1.97038596      10.06360708       0.02993947       0.03759827       0.00546719
O        2.75873155       3.15271182      14.83845569      -0.13633275      -0.18657519       0.00653472
