10
Lattice="3.940949890606662 0.0 0.0 0.0 3.940949890606662 0.0 0.0 0.0 26.940967945119528" Properties=species:S:1:pos:R:3:forces:R:3 tau=tau42 tau_p=4 tau_q=2 stage=A constraint=rigid_scf force_label=raw_dft energy=-15497.433339226547 free_energy=-15497.433339226547 stress="0.019386898044936422 0.0013074564440440192 0.009320217951889634 0.0013074564440440192 0.007228654904465283 0.003262214006803652 0.009320217951889634 0.003262214006803652 -0.02334232105121566" pbc="T T T"
Sr       0.00003626       0.00009419      10.75260867       0.00872890      -0.01054924       0.47682368
Sr       1.57628183       0.78817579      14.64522241      -0.75464012      -1.19250284       4.46672147
Ti       1.97047258       1.97057465      12.38212169       0.55595529       1.46940783      -3.53819739
Ti       3.54658061       2.75860069      16.28444791      -0.08945459       0.02288179      -0.22617069
O        0.00000906       1.97050529      12.45001441       1.06625165      -1.12471237      -2.06462463
O        1.57656794       2.75866847      16.39256827       0.01471005       0.13726066      -0.23568429
O        1.97049386       3.94093294      12.44909065      -0.13902238       0.16013730      -0.88448777
O        3.54695145       0.78819431      16.37955485      -0.00069394       0.01524433      -0.04393295
O        1.97043435       1.97038588      10.49176941       0.14696349       0.10100913       0.38200808
O        3.54692150       2.75861684      14.44792112      -0.80879886       0.42182341       1.66754449
