10
Lattice="3.940949890606662 0.0 0.0 0.0 3.940949890606662 0.0 0.0 0.0 26.940967945119528" Properties=species:S:1:pos:R:3:forces:R:3 tau=tau87 tau_p=8 tau_q=7 stage=B constraint=xy_fixed_z_free force_label=raw_dft energy=-15498.234943737294 free_energy=-15498.234943737294 stress="0.009618619176829457 0.0019079315243844606 -0.006844865021311912 0.0019079315243844606 0.01448485453738655 -0.012761472693657178 -0.006844865021311912 -0.012761472693657178 -0.01570233153514102" pbc="T T T"
Sr       0.00003626       0.00009419      10.75260867       0.00346405      -0.00628146       0.40478008
Sr       3.15266178       2.75865074      14.64522241       1.03345337       1.04605589       3.41295278
Ti       1.97047258       1.97057465      12.38212169      -1.21125287      -0.88899774      -2.45993149
Ti       1.18201068       0.78812574      16.28444791       0.04614230       0.12251589      -0.18991042
O        0.00000906       1.97050529      12.45001441      -0.66890206       0.35460192      -0.77437616
O        3.15294790       0.78819352      16.39256827      -0.00978973      -0.00313495      -0.08572032
O        1.97049386       3.94093294      12.44909065       0.83213162      -1.45466255      -1.44326742
O        1.18238152       2.75866926      16.37955485      -0.07989549      -0.01433236      -0.12675153
O        1.97043435       1.97038588      10.49176941      -0.14846809      -0.22224770       0.32695742
O        1.18235157       0.78814190      14.44792112       0.20311689       1.06648279       0.93526731
10
Lattice="3.940949890606662 0.0 0.0 0.0 3.940949890606662 0.0 0.0 0.0 26.940967945119528" Properties=species:S:1:pos:R:3:forces:R:3 tau=tau87 tau_p=8 tau_q=7 stage=B constraint=xy_fixed_z_free force_label=raw_dft energy=-15498.59944226503 free_energy=-15498.59944226503 stress="0.007823621039114529 0.0017123639523469773 -0.006038722635166794 0.0017123639523469773 0.011641320403113848 -0.010841605120275126 -0.006038722635166794 -0.010841605120275126 -0.017649743836979058" pbc="T T T"
Sr       0.00003612       0.00009431      10.76093979       0.00327559      -0.00617759       0.43070940
Sr       3.15266193       2.75865092      14.71546713       0.84540469       0.79405744       2.39536106
Ti       1.97047269       1.97057450      12.33149234      -0.93821380      -0.70856672      -1.11427729
Ti       1.18201077       0.78812580      16.28053923       0.04104689       0.10700417       0.08574655
O        0.00000902       1.97050521      12.43407647      -0.68912404       0.39222410      -0.63971772
O        3.15294791       0.78819359      16.39080406      -0.01010392      -0.00239575       0.02753883
O        1.97049401       3.94093312      12.41938571       0.75695771      -1.28483990      -1.28985946
O        1.18238144       2.75866935      16.37694604      -0.07233850      -0.01657873       0.00493909
O        1.97043419       1.97038596      10.49849873      -0.14084477      -0.20328119      -0.48238472
O        1.18235158       0.78814187      14.46717045       0.20394016       0.92855442       0.58194426
10
Lattice="3.940949890606662 0.0 0.0 0.0 3.940949890606662 0.0 0.0 0.0 26.940967945119528" Properties=species:S:1:pos:R:3:forces:R:3 tau=tau87 tau_p=8 tau_q=7 stage=B constraint=xy_fixed_z_free force_label=raw_dft energy=-15498.852230987033 free_energy=-15498.852230987033 stress="0.0055484264686502865 0.0015011877008511037 -0.005458447022360741 0.0015011877008511037 0.008433277695606964 -0.009177903521533718 -0.005458447022360741 -0.009177903521533718 -0.018310817319922665" pbc="T T T"
Sr       0.00003612       0.00009431      10.77411549       0.00562712      -0.00323162       0.24677500
Sr       3.15266193       2.75865092      14.79273601       0.70498543       0.59955709       1.38742306
Ti       1.97047269       1.97057450      12.29255024      -0.74357640      -0.58746288      -0.41123484
Ti       1.18201077       0.78812580      16.28223258       0.03603427       0.09238976       0.23628387
O        0.00000902       1.97050521      12.41391187      -0.69053712       0.41300196      -0.41796162
O        3.15294791       0.78819359      16.39126291      -0.00961181      -0.00202449       0.20132689
O        1.97049401       3.94093312      12.37913386       0.66905838      -1.11580864      -0.98153663
O        1.18238144       2.75866935      16.37664553      -0.06413000      -0.01700116       0.19878124
O        1.97043419       1.97038596      10.48642415      -0.12789670      -0.18162324      -0.80296117
O        1.18235158       0.78814187      14.48630732       0.22004632       0.80220321       0.34310446
10
Lattice="3.940949890606662 0.0 0.0 0.0 3.940949890606662 0.0 0.0 0.0 26.940967945119528" Properties=species:S:1:pos:R:3:forces:R:3 tau=tau87 tau_p=8 tau_q=7 stage=B constraint=xy_fixed_z_free force_label=raw_dft energy=-15499.048500848408 free_energy=-15499.048500848408 stress="0.0014387529830175408 0.0012404309381344593 -0.004787273805649941 0.0012404309381344593 0.0031841706095116985 -0.00713408467009974 -0.004787273805649941 -0.00713408467009974 -0.017822357468636557" pbc="T T T"
Sr       0.00003612       0.00009431      10.79306807       0.00982136       0.00275751      -0.24248048
Sr       3.15266193       2.75865092      14.90863933       0.54542097       0.39556319       0.03543931
Ti       1.97047269       1.97057450      12.24237480      -0.54363251      -0.46775283      -0.15807399
Ti       1.18201077       0.78812580      16.29259045       0.03102499       0.07378346       0.34849195
O        0.00000902       1.97050521      12.38186706      -0.65696648       0.40951991      -0.09628190
O        3.15294791       0.78819359      16.40032219      -0.00934519      -0.00155192       0.50182046
O        1.97049401       3.94093312      12.30894331       0.53396928      -0.88193801      -0.41354497
O        1.18238144       2.75866935      16.38503628      -0.05206792      -0.01647254       0.52689283
O        1.97043419       1.97038596      10.44683300      -0.10451149      -0.14904119      -0.63616111
O        1.18235158       0.78814187      14.51564546       0.24628674       0.63513216       0.13389765
10
Lattice="3.940949890606662 0.0 0.0 0.0 3.940949890606662 0.0 0.0 0.0 26.940967945119528" Properties=species:S:1:pos:R:3:forces:R:3 tau=tau87 tau_p=8 tau_q=7 stage=B constraint=xy_fixed_z_free force_label=raw_dft energy=-15499.095024287462 free_energy=-15499.095024287462 stress="0.000390216986459767 0.001140351758077719 -0.004572424923693269 0.001140351758077719 0.0017068550066557807 -0.00643077593685696 -0.004572424923693269 -0.00643077593685696 -0.016555299959661315" pbc="T T T"
Sr       0.00003612       0.00009431      10.79260911       0.01120204       0.00506893      -0.45427973
Sr       3.15266193       2.75865092      14.94984909       0.49305377       0.33583107      -0.34659833
Ti       1.97047269       1.97057450      12.21790844      -0.48362785      -0.43305553      -0.19341972
Ti       1.18201077       0.78812580      16.30432313       0.03044932       0.06822834       0.36400984
O        0.00000902       1.97050521      12.36855578      -0.63545252       0.39902570      -0.02456149
O        3.15294791       0.78819359      16.41615830      -0.00952619      -0.00115828       0.55727298
O        1.97049401       3.94093312      12.27503403       0.47752199      -0.79120712      -0.18843924
O        1.18238144       2.75866935      16.40126335      -0.04705710      -0.01580894       0.58847615
O        1.97043419       1.97038596      10.41994414      -0.09382675      -0.13569331      -0.42339410
O        1.18235158       0.78814187      14.52967457       0.25726355       0.56876864       0.12093364
10
Lattice="3.940949890606662 0.0 0.0 0.0 3.940949890606662 0.0 0.0 0.0 26.940967945119528" Properties=species:S:1:pos:R:3:forces:R:3 tau=tau87 tau_p=8 tau_q=7 stage=B constraint=xy_fixed_z_free force_label=raw_dft energy=-15499.157064609992 free_energy=-15499.157064609992 stress="0.0003039101706310185 0.0010127278495649951 -0.004348394465584603 0.0010127278495649951 0.0010724080945529596 -0.00566135985531982 -0.004348394465584603 -0.00566135985531982 -0.014177271736294733" pbc="T T T"
Sr       0.00003612       0.00009431      10.77852170       0.01226853       0.00735798      -0.64029185
Sr       3.15266193       2.75865092      14.99055620       0.43801519       0.27759275      -0.58817970
Ti       1.97047269       1.97057450      12.18048534      -0.42192677      -0.39702769      -0.17916810
Ti       1.18201077       0.78812580      16.32807150       0.03043569       0.06235799       0.37351187
O        0.00000902       1.97050521      12.35159270      -0.60472783       0.38086908      -0.02501683
O        3.15294791       0.78819359      16.45030969      -0.00984013      -0.00057310       0.51468703
O        1.97049401       3.94093312      12.22970329       0.40974488      -0.68545147       0.02626768
O        1.18238144       2.75866935      16.43671890      -0.04097850      -0.01456119       0.54606323
O        1.97043419       1.97038596      10.37865646      -0.08030198      -0.11930921      -0.18215855
O        1.18235158       0.78814187      14.55070419       0.26731091       0.48874486       0.15428444
10
Lattice="3.940949890606662 0.0 0.0 0.0 3.940949890606662 0.0 0.0 0.0 26.940967945119528" Properties=species:S:1:pos:R:3:forces:R:3 tau=tau87 tau_p=8 tau_q=7 stage=B constraint=xy_fixed_z_free force_label=raw_dft energy=-15499.245944880997 free_energy=-15499.245944880997 stress="0.0018914046873108705 0.0008300144841403044 -0.004075701653870366 0.0008300144841403044 0.0018693689045460838 -0.004752383816272362 -0.004075701653870366 -0.004752383816272362 -0.00998220959244844" pbc="T T T"
Sr       0.00003612       0.00009431      10.73835327       0.01223691       0.00923463      -0.76902210
Sr       3.15266193       2.75865092      15.03426391       0.37689107       0.21682396      -0.62875428
Ti       1.97047269       1.97057450      12.12033151      -0.35391955      -0.35456978      -0.10150150
Ti       1.18201077       0.78812580      16.37460466       0.03131552       0.05693785       0.37400732
O        0.00000902       1.97050521      12.32491222      -0.55587739       0.34933630      -0.12188495
O        3.15294791       0.78819359      16.51548223      -0.00991700      -0.00025660       0.33075288
O        1.97049401       3.94093312      12.16335839       0.32530240      -0.55527138       0.22284420
O        1.18238144       2.75866935      16.50471501      -0.03326493      -0.01278867       0.35358376
O        1.97043419       1.97038596      10.31226025      -0.06301542      -0.09817603       0.09215117
O        1.18235158       0.78814187      14.58703850       0.27024840       0.38872946       0.24782272
10
Lattice="3.940949890606662 0.0 0.0 0.0 3.940949890606662 0.0 0.0 0.0 26.940967945119528" Properties=species:S:1:pos:R:3:forces:R:3 tau=tau87 tau_p=8 tau_q=7 stage=B constraint=xy_fixed_z_free force_label=raw_dft energy=-15499.33489726217 free_energy=-15499.33489726217 stress="0.005620960920251043 0.0006124111293380343 -0.0037763822713153448 0.0006124111293380343 0.004606396755455649 -0.00390216986459767 -0.0037763822713153448 -0.00390216986459767 -0.004592624391227657" pbc="T T T"
Sr       0.00003612       0.00009431      10.66231231       0.01034226       0.00915827      -0.71559920
Sr       3.15266193       2.75865092      15.07079143       0.32271664       0.16835918      -0.37988898
Ti       1.97047269       1.97057450      12.04279556      -0.29195236      -0.31192084       0.05198539
Ti       1.18201077       0.78812580      16.44760118       0.03189171       0.05181390       0.35495056
O        0.00000902       1.97050521      12.28567591      -0.49119538       0.30615411      -0.31103483
O        3.15294791       0.78819359      16.60954690      -0.00943389      -0.00003780       0.02574188
O        1.97049401       3.94093312      12.08437344       0.24469035      -0.42962877       0.30226634
O        1.18238144       2.75866935      16.60313015      -0.02603910      -0.01042351       0.03101959
O        1.97043419       1.97038596      10.22709617      -0.04655779      -0.07654997       0.28769359
O        1.18235158       0.78814187      14.64199692       0.25553757       0.29307568       0.35286591
10
Lattice="3.940949890606662 0.0 0.0 0.0 3.940949890606662 0.0 0.0 0.0 26.940967945119528" Properties=species:S:1:pos:R:3:forces:R:3 tau=tau87 tau_p=8 tau_q=7 stage=B constraint=xy_fixed_z_free force_label=raw_dft energy=-15499.381294984629 free_energy=-15499.381294984629 stress="0.008928164650199468 0.0004746874870581165 -0.0036166228462706403 0.0004746874870581165 0.007366378546745201 -0.0035486791827458804 -0.0036166228462706403 -0.0035486791827458804 -0.0013726456347231803" pbc="T T T"
Sr       0.00003612       0.00009431      10.59410129       0.00771871       0.00739835      -0.50159163
Sr       3.15266193       2.75865092      15.08248653       0.30022617       0.15276364      -0.08625280
Ti       1.97047269       1.97057450      11.99707532      -0.26569754      -0.29061308       0.13980605
Ti       1.18201077       0.78812580      16.50549473       0.03216707       0.04963746       0.26699698
O        0.00000902       1.97050521      12.25187971      -0.44661476       0.27591768      -0.41084069
O        3.15294791       0.78819359      16.67177668      -0.00872118      -0.00042989      -0.14047274
O        1.97049401       3.94093312      12.04097334       0.20717924      -0.37019540       0.24867530
O        1.18238144       2.75866935      16.66837107      -0.02258663      -0.00911559      -0.14793151
O        1.97043419       1.97038596      10.17674924      -0.03940601      -0.06564489       0.27578012
O        1.18235158       0.78814187      14.68641205       0.23573519       0.25028147       0.35583091
10
Lattice="3.940949890606662 0.0 0.0 0.0 3.940949890606662 0.0 0.0 0.0 26.940967945119528" Properties=species:S:1:pos:R:3:forces:R:3 tau=tau87 tau_p=8 tau_q=7 stage=B constraint=xy_fixed_z_free force_label=raw_dft energy=-15499.411445197953 free_energy=-15499.411445197953 stress="0.011482479135684343 0.0003663448884645812 -0.0035073620900619054 0.0003663448884645812 0.009775624129028562 -0.003397183176237971 -0.0035073620900619054 -0.003397183176237971 0.00047927827513411376" pbc="T T T"
Sr       0.00003612       0.00009431      10.52989220       0.00515815       0.00500028      -0.21298890
Sr       3.15266193       2.75865092      15.08698001       0.28850683       0.14964720       0.17119870
Ti       1.97047269       1.97057450      11.96937275      -0.25369101      -0.27713150       0.13262316
Ti       1.18201077       0.78812580      16.55610367       0.03176804       0.04842544       0.11687952
O        0.00000902       1.97050521      12.21541002      -0.40804821       0.24976082      -0.40892882
O        3.15294791       0.78819359      16.71432283      -0.00784624      -0.00132438      -0.18579897
O        1.97049401       3.94093312      12.01613324       0.18632373      -0.33599073       0.16549137
O        1.18238144       2.75866935      16.71296285      -0.02060096      -0.00800950      -0.20143462
O        1.97043419       1.97038596      10.14557335      -0.03608440      -0.05873788       0.16132618
O        1.18235158       0.78814187      14.72856905       0.21451408       0.22836050       0.26163186
10
Lattice="3.940949890606662 0.0 0.0 0.0 3.940949890606662 0.0 0.0 0.0 26.940967945119528" Properties=species:S:1:pos:R:3:forces:R:3 tau=tau87 tau_p=8 tau_q=7 stage=B constraint=xy_fixed_z_free force_label=raw_dft energy=-15499.426940856549 free_energy=-15499.426940856549 stress="0.012365746761506216 0.0003057464858614174 -0.0034247279046939545 0.0003057464858614174 0.010913221414260682 -0.0033567842411691955 -0.0034247279046939545 -0.0033567842411691955 0.0007951244947627252" pbc="T T T"
Sr       0.00003612       0.00009431      10.49063512       0.00342368       0.00336429      -0.00372527
Sr       3.15266193       2.75865092      15.09321833       0.28110591       0.15136316       0.27416547
Ti       1.97047269       1.97057450      11.95951309      -0.24929853      -0.26993832       0.05918782
Ti       1.18201077       0.78812580      16.58530424       0.03109544       0.04824161       0.00212605
O        0.00000902       1.97050521      12.18502392      -0.38034715       0.23146536      -0.32814013
O        3.15294791       0.78819359      16.73076915      -0.00730296      -0.00218081      -0.13304816
O        1.97049401       3.94093312      12.00893604       0.17814325      -0.32117475       0.11692452
O        1.18238144       2.75866935      16.73000694      -0.01969825      -0.00737495      -0.15112070
O        1.97043419       1.97038596      10.13444658      -0.03549228      -0.05511442       0.03537144
O        1.18235158       0.78814187      14.75746654       0.19837089       0.22134884       0.12825922
10
Lattice="3.940949890606662 0.0 0.0 0.0 3.940949890606662 0.0 0.0 0.0 26.940967945119528" Properties=species:S:1:pos:R:3:forces:R:3 tau=tau87 tau_p=8 tau_q=7 stage=B constraint=xy_fixed_z_free force_label=raw_dft energy=-15499.436973013497 free_energy=-15499.436973013497 stress="0.012150897879549543 0.00026718386602304044 -0.003309040045178824 0.00026718386602304044 0.011141842660445347 -0.0033108763604092224 -0.003309040045178824 -0.0033108763604092224 0.00036726304607978067" pbc="T T T"
Sr       0.00003612       0.00009431      10.46710048       0.00231091       0.00243226       0.11587731
Sr       3.15266193       2.75865092      15.10779949       0.26987919       0.15132433       0.25019148
Ti       1.97047269       1.97057450      11.95393419      -0.24329372      -0.26165628      -0.02504743
Ti       1.18201077       0.78812580      16.60288022       0.02963968       0.04732964      -0.06835175
O        0.00000902       1.97050521      12.15598770      -0.35467314       0.21533477      -0.21659153
O        3.15294791       0.78819359      16.73629117      -0.00691935      -0.00296525      -0.03918747
O        1.97049401       3.94093312      12.00741653       0.17334892      -0.31087003       0.09932223
O        1.18238144       2.75866935      16.73528865      -0.01881816      -0.00697592      -0.05602691
O        1.97043419       1.97038596      10.12916510      -0.03545577      -0.05199079      -0.06232868
O        1.18235158       0.78814187      14.77945643       0.18398146       0.21803726       0.00214250
10
Lattice="3.940949890606662 0.0 0.0 0.0 3.940949890606662 0.0 0.0 0.0 26.940967945119528" Properties=species:S:1:pos:R:3:forces:R:3 tau=tau87 tau_p=8 tau_q=7 stage=B constraint=xy_fixed_z_free force_label=raw_dft energy=-15499.443750961049 free_energy=-15499.443750961049 stress="0.011316292607333241 0.0002433117680278547 -0.00314836246251892 0.0002433117680278547 0.010752543831600778 -0.0032126334955828815 -0.00314836246251892 -0.0032126334955828815 -0.0002745291269446361" pbc="T T T"
Sr       0.00003612       0.00009431      10.45414532       0.00177792       0.00211885       0.14220874
Sr       3.15266193       2.75865092      15.13088685       0.25295953       0.14700899       0.13683720
Ti       1.97047269       1.97057450      11.94510299      -0.23266092      -0.24975670      -0.08021353
Ti       1.18201077       0.78812580      16.61412413       0.02774735       0.04523033      -0.07985744
O        0.00000902       1.97050521      12.12810489      -0.32957866       0.20005651      -0.11508772
O        3.15294791       0.78819359      16.74068312      -0.00659951      -0.00347125       0.04683830
O        1.97049401       3.94093312      12.00515913       0.16823371      -0.29956643       0.09727640
O        1.18238144       2.75866935      16.73904979      -0.01764779      -0.00670338       0.03343745
O        1.97043419       1.97038596      10.12147896      -0.03487650      -0.04841696      -0.10302128
O        1.18235158       0.78814187      14.79658478       0.17064489       0.21350004      -0.07841839
10
Lattice="3.940949890606662 0.0 0.0 0.0 3.940949890606662 0.0 0.0 0.0 26.940967945119528" Properties=species:S:1:pos:R:3:forces:R:3 tau=tau87 tau_p=8 tau_q=7 stage=B constraint=xy_fixed_z_free force_label=raw_dft energy=-15499.448116075191 free_energy=-15499.448116075191 stress="0.010481687335116941 0.00022586677333906514 -0.0029647309394790294 0.00022586677333906514 0.010239293724704286 -0.003071237222842166 -0.0029647309394790294 -0.003071237222842166 -0.0006050658684164386" pbc="T T T"
Sr       0.00003612       0.00009431      10.44524060       0.00162622       0.00214919       0.10370210
Sr       3.15266193       2.75865092      15.15704286       0.23347725       0.13953557       0.00957813
Ti       1.97047269       1.97057450      11.92986373      -0.21858516      -0.23530788      -0.08921959
Ti       1.18201077       0.78812580      16.62440802       0.02554777       0.04267080      -0.05139918
O        0.00000902       1.97050521      12.10235321      -0.30643539       0.18602626      -0.05223350
O        3.15294791       0.78819359      16.75088334      -0.00627863      -0.00369056       0.08698582
O        1.97049401       3.94093312      11.99887263       0.16164551      -0.28613833       0.09251318
O        1.18238144       2.75866935      16.74868049      -0.01620078      -0.00654474       0.07729302
O        1.97043419       1.97038596      10.10730621      -0.03338629      -0.04445360      -0.08690817
O        1.18235158       0.78814187      14.81066888       0.15858976       0.20575330      -0.09031206
10
Lattice="3.940949890606662 0.0 0.0 0.0 3.940949890606662 0.0 0.0 0.0 26.940967945119528" Properties=species:S:1:pos:R:3:forces:R:3 tau=tau87 tau_p=8 tau_q=7 stage=B constraint=xy_fixed_z_free force_label=raw_dft energy=-15499.450826465081 free_energy=-15499.450826465081 stress="0.0100483169407428 0.00020842177865027553 -0.0027902809925911334 0.00020842177865027553 0.01001342695136522 -0.002918823058719057 -0.0027902809925911334 -0.002918823058719057 -0.00043428855198934064" pbc="T T T"
Sr       0.00003612       0.00009431      10.43452218       0.00158663       0.00224946       0.05143132
Sr       3.15266193       2.75865092      15.18057012       0.21525173       0.13166928      -0.06612852
Ti       1.97047269       1.97057450      11.90951956      -0.20413325      -0.22083025      -0.06281951
Ti       1.18201077       0.78812580      16.63746563       0.02360915       0.04004056      -0.01409762
O        0.00000902       1.97050521      12.07825678      -0.28593290       0.17346102      -0.02815538
O        3.15294791       0.78819359      16.76844422      -0.00596984      -0.00369442       0.07480805
O        1.97049401       3.94093312      11.98893173       0.15409933      -0.27182243       0.07325253
O        1.18238144       2.75866935      16.76594782      -0.01476636      -0.00630923       0.06778276
O        1.97043419       1.97038596      10.08742710      -0.03141939      -0.04052213      -0.04088105
O        1.18235158       0.78814187      14.82423483       0.14767465       0.19575814      -0.05519259
10
Lattice="3.940949890606662 0.0 0.0 0.0 3.940949890606662 0.0 0.0 0.0 26.940967945119528" Properties=species:S:1:pos:R:3:forces:R:3 tau=tau87 tau_p=8 tau_q=7 stage=B constraint=xy_fixed_z_free force_label=raw_dft energy=-15499.452067576298 free_energy=-15499.452067576298 stress="0.010061171147355592 0.0001955675720374832 -0.002679183921152 0.0001955675720374832 0.01014839612079954 -0.0028196620362775163 -0.002679183921152 -0.0028196620362775163 -1.4690521843191228e-05" pbc="T T T"
Sr       0.00003612       0.00009431      10.42489955       0.00154883       0.00227465       0.02124451
Sr       3.15266193       2.75865092      15.19334927       0.20422530       0.12701327      -0.06912154
Ti       1.97047269       1.97057450      11.89320629      -0.19518632      -0.21121124      -0.02745887
Ti       1.18201077       0.78812580      16.64890545       0.02248713       0.03836163       0.01037697
O        0.00000902       1.97050521      12.06151698      -0.27303547       0.16541732      -0.02792732
O        3.15294791       0.78819359      16.78483086      -0.00571428      -0.00368182       0.03577124
O        1.97049401       3.94093312      11.98125529       0.14905174      -0.26251889       0.04556483
O        1.18238144       2.75866935      16.78222966      -0.01379114      -0.00611280       0.02996364
O        1.97043419       1.97038596      10.07114575      -0.02998189      -0.03796362      -0.00426135
O        1.18235158       0.78814187      14.83398085       0.14039612       0.18842175      -0.01415212
10
Lattice="3.940949890606662 0.0 0.0 0.0 3.940949890606662 0.0 0.0 0.0 26.940967945119528" Properties=species:S:1:pos:R:3:forces:R:3 tau=tau87 tau_p=8 tau_q=7 stage=B constraint=xy_fixed_z_free force_label=raw_dft energy=-15499.45246812787 free_energy=-15499.45246812787 stress="0.010192467686329114 0.00018914046873108706 -0.0026397031436984236 0.00018914046873108706 0.010370590263677806 -0.0027930354654367323 -0.0026397031436984236 -0.0027930354654367323 0.0002543296594102481" pbc="T T T"
Sr       0.00003612       0.00009431      10.42025960       0.00156092       0.00227774       0.01570456
Sr       3.15266193       2.75865092      15.19573576       0.20065429       0.12607327      -0.04155623
Ti       1.97047269       1.97057450      11.88635897      -0.19257280      -0.20790429      -0.00753153
Ti       1.18201077       0.78812580      16.65461368       0.02214311       0.03801582       0.01404362
O        0.00000902       1.97050521      12.05381325      -0.26810898       0.16224972      -0.02783991
O        3.15294791       0.78819359      16.79272982      -0.00559498      -0.00370702       0.00904797
O        1.97049401       3.94093312      11.97938992       0.14772762      -0.26002878       0.02394597
O        1.18238144       2.75866935      16.78999085      -0.01342244      -0.00602101       0.00396567
O        1.97043419       1.97038596      10.06433505      -0.02954198      -0.03699252       0.00672781
O        1.18235158       0.78814187      14.83809306       0.13715550       0.18603731       0.00349207
10
Lattice="3.940949890606662 0.0 0.0 0.0 3.940949890606662 0.0 0.0 0.0 26.940967945119528" Properties=species:S:1:pos:R:3:forces:R:3 tau=tau87 tau_p=8 tau_q=7 stage=B constraint=xy_fixed_z_free force_label=raw_dft energy=-15499.452645001864 free_energy=-15499.452645001864 stress="0.010260411349853874 0.00018730415350068813 -0.0026341941980072272 0.00018730415350068813 0.010527595215876914 -0.0028022170415887265 -0.0026341941980072272 -0.0028022170415887265 0.0003461454209301933" pbc="T T T"
Sr       0.00003612       0.00009431      10.41998608       0.00160488       0.00232505       0.01452416
Sr       3.15266193       2.75865092      15.19368994       0.20051751       0.12690117      -0.01646406
Ti       1.97047269       1.97057450      11.88533002      -0.19298289      -0.20768214       0.00096262
Ti       1.18201077       0.78812580      16.65593863       0.02210532       0.03824645       0.00878495
O        0.00000902       1.97050521      12.05100126      -0.26715227       0.16154524      -0.02117226
O        3.15294791       0.78819359      16.79448814      -0.00555795      -0.00376667      -0.00232428
O        1.97049401       3.94093312      11.98134908       0.14857325      -0.26136292       0.00989206
O        1.18238144       2.75866935      16.79148824      -0.01337488      -0.00600353      -0.00643804
O        1.97043419       1.97038596      10.06351514      -0.02968441      -0.03685445       0.00557827
O        1.18235158       0.78814187      14.83853343       0.13595119       0.18665206       0.00665659
