10
Lattice="3.940949890606662 0.0 0.0 0.0 3.940949890606662 0.0 0.0 0.0 26.940967945119528" Properties=species:S:1:pos:R:3:forces:R:3 tau=tau30 tau_p=3 tau_q=0 stage=A constraint=rigid_scf force_label=raw_dft energy=-15498.679914490533 free_energy=-15498.679914490533 stress="0.015049521470734212 0.0 0.01764882567936386 0.0 0.006640115873122435 0.0 0.01764882567936386 0.0 -0.017927027436769296" pbc="T T T"
Sr       0.00003626       0.00009419      10.75260867       0.00415027       0.00003137       0.23978211
Sr       1.18218684       3.94093570      14.64522241      -0.85322316       0.00008793       2.98581542
Ti       1.97047258       1.97057465      12.38212169       0.51595201      -0.00050008      -1.26209464
Ti       3.15248562       1.97041071      16.28444791      -0.18969059      -0.00004062       0.14071313
O        0.00000906       1.97050529      12.45001441       2.13979109      -0.00001877      -2.36170378
O        1.18247295       1.97047849      16.39256827       0.01300078       0.00000643      -0.18949596
O        1.97049386       3.94093294      12.44909065       0.09020330       0.00012830      -0.80108555
O        3.15285647       0.00000434      16.37955485      -0.06574876       0.00003625      -0.03449443
O        1.97043435       1.97038588      10.49176941       0.30928160       0.00020415       0.22135424
O        3.15282651       1.97042687      14.44792112      -1.96371655       0.00006505       1.06120972
