10
Lattice="3.940949890606662 0.0 0.0 0.0 3.940949890606662 0.0 0.0 0.0 26.940967945119528" Properties=species:S:1:pos:R:3:forces:R:3 tau=tau22 tau_p=2 tau_q=2 stage=A constraint=rigid_scf force_label=raw_dft energy=-15499.05246051293 free_energy=-15499.05246051293 stress="0.01095086587648386 0.0016471747616678164 0.010558812574793694 0.0016471747616678164 0.01063593781447045 0.010552385471487298 0.010558812574793694 0.010552385471487298 -0.009490077110701533" pbc="T T T"
Sr       0.00003626       0.00009419      10.75260867       0.00026148       0.00030699       0.29779237
Sr       0.78809185       0.78817579      14.64522241      -0.86093312      -0.86016308       2.35235628
Ti       1.97047258       1.97057465      12.38212169       0.88826806       0.88819710      -1.36643360
Ti       2.75839063       2.75860069      16.28444791      -0.09427258      -0.09228898      -0.11050550
O        0.00000906       1.97050529      12.45001441       1.23123626      -0.52357996      -0.83342952
O        0.78837796       2.75866847      16.39256827       0.00267986       0.00725771      -0.08684415
O        1.97049386       3.94093294      12.44909065      -0.52374528       1.22761563      -0.82789470
O        2.75876148       0.78819431      16.37955485       0.00829875       0.00001260      -0.04917620
O        1.97043435       1.97038588      10.49176941       0.21395846       0.21371858       0.25256358
O        2.75873153       2.75861684      14.44792112      -0.86575214      -0.86107659       0.37157197
