10
Lattice="3.940949890606662 0.0 0.0 0.0 3.940949890606662 0.0 0.0 0.0 26.940967945119528" Properties=species:S:1:pos:R:3:forces:R:3 tau=tau79 tau_p=7 tau_q=9 stage=A constraint=rigid_scf force_label=raw_dft energy=-15498.575267807659 free_energy=-15498.575267807659 stress="0.015084411460111791 0.0012633848785144456 -0.016221090587728713 0.0012633848785144456 0.007186419654166108 -0.003253950588266857 -0.016221090587728713 -0.003253950588266857 -0.01686196460313793" pbc="T T T"
Sr       0.00003626       0.00009419      10.75260867      -0.00602409       0.00338949       0.28896808
Sr       2.75856679       3.54684071      14.64522241       0.90390346       0.52906464       3.06355581
Ti       1.97047258       1.97057465      12.38212169      -0.62022310      -0.75520062      -1.57453355
Ti       0.78791569       1.57631572      16.28444791       0.17171292       0.01560145       0.03865936
O        0.00000906       1.97050529      12.45001441      -1.94646728       0.60686056      -2.07808899
O        2.75885291       1.57638350      16.39256827      -0.01377906      -0.04776133      -0.18390844
O        1.97049386       3.94093294      12.44909065       0.04575664      -0.31489175      -0.77413474
O        0.78828653       3.54685924      16.37955485       0.04972154       0.00408317      -0.03140551
O        1.97043435       1.97038588      10.49176941      -0.28406113      -0.08842101       0.25463306
O        0.78825658       1.57633188      14.44792112       1.69946011       0.04727513       0.99625517
