10
Lattice="3.940949890606662 0.0 0.0 0.0 3.940949890606662 0.0 0.0 0.0 26.940967945119528" Properties=species:S:1:pos:R:3:forces:R:3 tau=tau47 tau_p=4 tau_q=7 stage=A constraint=rigid_scf force_label=raw_dft energy=-15497.078107943758 free_energy=-15497.078107943758 stress="0.018258482335856297 -0.0010779170402441562 0.006838437918005516 -0.0010779170402441562 0.0112198860577373 -0.006143392603299531 0.006838437918005516 -0.006143392603299531 -0.021792470996758986" pbc="T T T"
Sr       0.00003626       0.00009419      10.75260867       0.00531601       0.00739012       0.60292266
Sr       1.57628183       2.75865074      14.64522241      -0.90685662       1.51206397       5.07585772
Ti       1.97047258       1.97057465      12.38212169       0.78480430      -1.54468535      -5.05415427
Ti       3.54658061       0.78812574      16.28444791      -0.03991098      -0.01237703      -0.58217437
O        0.00000906       1.97050529      12.45001441       0.69123903       0.92398429      -1.03842563
O        1.57656794       0.78819352      16.39256827       0.00946757      -0.12426270      -0.17454602
O        1.97049386       3.94093294      12.44909065      -0.35466903      -0.43651418      -0.57425846
O        3.54695145       2.75866926      16.37955485       0.04166164      -0.01774215      -0.07411076
O        1.97043435       1.97038588      10.49176941       0.10013830      -0.09645236       0.43010211
O        3.54692150       0.78814190      14.44792112      -0.33119048      -0.21140459       1.38878703
