10
Lattice="3.940949890606662 0.0 0.0 0.0 3.940949890606662 0.0 0.0 0.0 26.940967945119528" Properties=species:S:1:pos:R:3:forces:R:3 tau=tau93 tau_p=9 tau_q=3 stage=A constraint=rigid_scf force_label=raw_dft energy=-15498.57811547898 free_energy=-15498.57811547898 stress="0.007497675085718723 -0.0012633848785144456 -0.003253950588266857 -0.0012633848785144456 0.014760301821946386 0.01620731822350072 -0.003253950588266857 0.01620731822350072 -0.016860128287907533" pbc="T T T"
Sr       0.00003626       0.00009419      10.75260867       0.00329024       0.00580864       0.28853125
Sr       3.54675677       1.18227078      14.64522241       0.53031600      -0.90690573       3.06621793
Ti       1.97047258       1.97057465      12.38212169      -0.75414415       0.62021719      -1.57306493
Ti       1.57610567       3.15269568      16.28444791       0.01559605      -0.17003734       0.03872518
O        0.00000906       1.97050529      12.45001441      -0.31619015      -0.04405740      -0.78179894
O        3.54704288       3.15276346      16.39256827       0.00308764      -0.04865247      -0.06863303
O        1.97049386       3.94093294      12.44909065       0.60625481       1.94019250      -2.07086933
O        1.57647651       1.18228930      16.37955485      -0.04871855       0.01119895      -0.14761603
O        1.97043435       1.97038588      10.49176941      -0.08880976       0.28431079       0.25452739
O        1.57644656       3.15271183      14.44792112       0.04931787      -1.69207513       0.99398025
