10
Lattice="3.940949890606662 0.0 0.0 0.0 3.940949890606662 0.0 0.0 0.0 26.940967945119528" Properties=species:S:1:pos:R:3:forces:R:3 tau=tau64 tau_p=6 tau_q=4 stage=A constraint=rigid_scf force_label=raw_dft energy=-15496.624182604375 free_energy=-15496.624182604375 stress="0.016513982866977337 -0.0005977206074948431 -0.005379485467453588 -0.0005977206074948431 0.01614304719043676 0.005383158097914386 -0.005379485467453588 0.005383158097914386 -0.024386266259697437" pbc="T T T"
Sr       0.00003626       0.00009419      10.75260867       0.00124801      -0.00128941       0.67845293
Sr       2.36447180       1.57636577      14.64522241       1.10514884      -1.10511310       6.08903357
Ti       1.97047258       1.97057465      12.38212169      -1.00772100       1.00826762      -6.65833701
Ti       0.39382070       3.54679066      16.28444791      -0.01095804       0.01197466      -0.90162520
O        0.00000906       1.97050529      12.45001441      -0.42702758      -0.49164455      -0.41806240
O        2.36475792       3.54685845      16.39256827      -0.00259141       0.06106241      -0.12838958
O        1.97049386       3.94093294      12.44909065       0.49095832       0.42559085      -0.40994543
O        0.39419154       1.57638429      16.37955485      -0.06259968       0.00146321      -0.09033957
O        1.97043435       1.97038588      10.49176941      -0.05910221       0.05939660       0.43964784
O        0.39416159       3.54680682      14.44792112      -0.02735525       0.03029171       1.39956484
