10
Lattice="3.940949890606662 0.0 0.0 0.0 3.940949890606662 0.0 0.0 0.0 26.940967945119528" Properties=species:S:1:pos:R:3:forces:R:3 tau=tau88 tau_p=8 tau_q=8 stage=A constraint=rigid_scf force_label=raw_dft energy=-15499.052187446696 free_energy=-15499.052187446696 stress="0.010953620349329458 0.0016471747616678164 -0.010561567047639293 0.0016471747616678164 0.010640528602546447 -0.010552385471487298 -0.010561567047639293 -0.010552385471487298 -0.009488240795471134" pbc="T T T"
Sr       0.00003626       0.00009419      10.75260867      -0.00043400      -0.00033861       0.29783376
Sr       3.15266178       3.15274573      14.64522241       0.86091281       0.86036979       2.35307773
Ti       1.97047258       1.97057465      12.38212169      -0.88851617      -0.88862442      -1.36727795
Ti       1.18201068       1.18222073      16.28444791       0.09346526       0.09256126      -0.11032244
O        0.00000906       1.97050529      12.45001441      -1.23122314       0.52324752      -0.83294409
O        3.15294790       1.18228851      16.39256827      -0.00231528      -0.00736081      -0.08676342
O        1.97049386       3.94093294      12.44909065       0.52356479      -1.22778635      -0.82791784
O        1.18238152       3.15276425      16.37955485      -0.00744746      -0.00024066      -0.04898903
O        1.97043435       1.97038588      10.49176941      -0.21359285      -0.21319690       0.25223242
O        1.18235157       1.18223689      14.44792112       0.86558630       0.86136918       0.37107061
