10
Lattice="3.940949890606662 0.0 0.0 0.0 3.940949890606662 0.0 0.0 0.0 26.940967945119528" Properties=species:S:1:pos:R:3:forces:R:3 tau=tau27 tau_p=2 tau_q=7 stage=B constraint=xy_fixed_z_free force_label=raw_dft energy=-15498.23512632568 free_energy=-15498.23512632568 stress="0.009614028388753458 -0.0019079315243844606 0.006842110548466314 -0.0019079315243844606 0.014479345591695354 -0.01276055453604198 0.006842110548466314 -0.01276055453604198 -0.01570600416560182" pbc="T T T"
Sr       0.00003626       0.00009419      10.75260867      -0.00363683      -0.00627915       0.40494078
Sr       0.78809185       2.75865074      14.64522241      -1.03352048       1.04560569       3.41241928
Ti       1.97047258       1.97057465      12.38212169       1.21118242      -0.88878305      -2.45946869
Ti       2.75839063       0.78812574      16.28444791      -0.04651588       0.12215465      -0.18991479
O        0.00000906       1.97050529      12.45001441       0.66868711       0.35453919      -0.77445535
O        0.78837796       0.78819352      16.39256827       0.00983293      -0.00296500      -0.08566144
O        1.97049386       3.94093294      12.44909065      -0.83220567      -1.45458284      -1.44302805
O        2.75876148       2.75866926      16.37955485       0.08079820      -0.01404876      -0.12683920
O        1.97043435       1.97038588      10.49176941       0.14868870      -0.22219988       0.32665969
O        2.75873153       0.78814190      14.44792112      -0.20331050       1.06655890       0.93534779
10
Lattice="3.940949890606662 0.0 0.0 0.0 3.940949890606662 0.0 0.0 0.0 26.940967945119528" Properties=species:S:1:pos:R:3:forces:R:3 tau=tau27 tau_p=2 tau_q=7 stage=B constraint=xy_fixed_z_free force_label=raw_dft energy=-15498.599551518733 free_energy=-15498.599551518733 stress="0.00785208392518571 -0.0017123639523469773 0.006037804477551594 -0.0017123639523469773 0.011668865131569832 -0.010841605120275126 0.006037804477551594 -0.010841605120275126 -0.017624035423753476" pbc="T T T"
Sr       0.00003612       0.00009431      10.76094309      -0.00349876      -0.00615728       0.43078294
Sr       0.78809198       2.75865092      14.71545615      -0.84564149       0.79374788       2.39493529
Ti       1.97047269       1.97057450      12.33150187       0.93844983      -0.70859037      -1.11449506
Ti       2.75839074       0.78812580      16.28053914      -0.04080701       0.10672289       0.08588899
O        0.00000902       1.97050521      12.43407484       0.68889135       0.39216497      -0.63949943
O        0.78837796       0.78819359      16.39080527       0.00959536      -0.00225691       0.02778463
O        1.97049401       3.94093312      12.41939064      -0.75700065      -1.28475711      -1.28944012
O        2.75876140       2.75866935      16.37694424       0.07306792      -0.01633910       0.00496326
O        1.97043419       1.97038596      10.49849260       0.14107823      -0.20324416      -0.48262820
O        2.75873155       0.78814187      14.46717212      -0.20413454       0.92870920       0.58170746
10
Lattice="3.940949890606662 0.0 0.0 0.0 3.940949890606662 0.0 0.0 0.0 26.940967945119528" Properties=species:S:1:pos:R:3:forces:R:3 tau=tau27 tau_p=2 tau_q=7 stage=B constraint=xy_fixed_z_free force_label=raw_dft energy=-15498.852310716387 free_energy=-15498.852310716387 stress="0.0055484264686502865 -0.001502105858466303 0.005456610707130341 -0.001502105858466303 0.008433277695606964 -0.00917698536391852 0.005456610707130341 -0.00917698536391852 -0.018311735477537866" pbc="T T T"
Sr       0.00003612       0.00009431      10.77412177      -0.00582972      -0.00326787       0.24756690
Sr       0.78809198       2.75865092      14.79271294      -0.70504791       0.59918608       1.38669235
Ti       1.97047269       1.97057450      12.29255540       0.74366228      -0.58732095      -0.41088311
Ti       2.75839074       0.78812580      16.28223667      -0.03518889       0.09215888       0.23557347
O        0.00000902       1.97050521      12.41391546       0.69035200       0.41301558      -0.41813928
O        0.78837796       0.78819359      16.39127117       0.00860394      -0.00187845       0.20110012
O        1.97049401       3.94093312      12.37915003      -0.66910543      -1.11578858      -0.98160091
O        2.75876140       2.75866935      16.37664419       0.06458045      -0.01675279       0.19849405
O        1.97043419       1.97038596      10.48640929       0.12813221      -0.18160370      -0.80145245
O        2.75873155       0.78814187      14.48630304      -0.22015919       0.80225206       0.34264886
10
Lattice="3.940949890606662 0.0 0.0 0.0 3.940949890606662 0.0 0.0 0.0 26.940967945119528" Properties=species:S:1:pos:R:3:forces:R:3 tau=tau27 tau_p=2 tau_q=7 stage=B constraint=xy_fixed_z_free force_label=raw_dft energy=-15499.048540713085 free_energy=-15499.048540713085 stress="0.0014332440373263442 -0.0012404309381344593 0.004786355648034741 -0.0012404309381344593 0.003176825348590103 -0.00713408467009974 0.004786355648034741 -0.00713408467009974 -0.017829702729558153" pbc="T T T"
Sr       0.00003612       0.00009431      10.79311868      -0.01011318       0.00277628      -0.24261701
Sr       0.78809198       2.75865092      14.90859814      -0.54538420       0.39539016       0.03575248
Ti       1.97047269       1.97057450      12.24239647       0.54386494      -0.46775488      -0.15815935
Ti       2.75839074       0.78812580      16.29256975      -0.02913883       0.07352532       0.34852872
O        0.00000902       1.97050521      12.38185506       0.65680913       0.40954588      -0.09606053
O        0.78837796       0.78819359      16.40032902       0.00765726      -0.00146064       0.50148442
O        1.97049401       3.94093312      12.30894036      -0.53401684      -0.88191924      -0.41332797
O        2.75876140       2.75866935      16.38502756       0.05199799      -0.01628717       0.52655910
O        1.97043419       1.97038596      10.44686075       0.10475188      -0.14905174      -0.63612100
O        2.75873155       0.78814187      14.51562417      -0.24642815       0.63523603       0.13396116
10
Lattice="3.940949890606662 0.0 0.0 0.0 3.940949890606662 0.0 0.0 0.0 26.940967945119528" Properties=species:S:1:pos:R:3:forces:R:3 tau=tau27 tau_p=2 tau_q=7 stage=B constraint=xy_fixed_z_free force_label=raw_dft energy=-15499.095048777705 free_energy=-15499.095048777705 stress="0.00038838067122936806 -0.001140351758077719 0.004572424923693269 -0.001140351758077719 0.0017050186914253818 -0.006428939621626561 0.004572424923693269 -0.006428939621626561 -0.016556218117276512" pbc="T T T"
Sr       0.00003612       0.00009431      10.79266986      -0.01148897       0.00505376      -0.45455870
Sr       0.78809198       2.75865092      14.94983357      -0.49290207       0.33563643      -0.34647003
Ti       1.97047269       1.97057450      12.21792343       0.48375177      -0.43299331      -0.19402676
Ti       2.75839074       0.78812580      16.30430236      -0.02834307       0.06799668       0.36446570
O        0.00000902       1.97050521      12.36853951       0.63531908       0.39905398      -0.02434680
O        0.78837796       0.78819359      16.41616080       0.00773542      -0.00108166       0.55708658
O        1.97049401       3.94093312      12.27501703      -0.47752559      -0.79114875      -0.18819550
O        2.75876140       2.75866935      16.40124819       0.04683162      -0.01563334       0.58834399
O        1.97043419       1.97038596      10.41996799       0.09404684      -0.13569511      -0.42345658
O        2.75873155       0.78814187      14.52965721      -0.25742476       0.56881158       0.12115809
10
Lattice="3.940949890606662 0.0 0.0 0.0 3.940949890606662 0.0 0.0 0.0 26.940967945119528" Properties=species:S:1:pos:R:3:forces:R:3 tau=tau27 tau_p=2 tau_q=7 stage=B constraint=xy_fixed_z_free force_label=raw_dft energy=-15499.157051548527 free_energy=-15499.157051548527 stress="0.0003140099043982125 -0.0010127278495649951 0.004347476307969404 -0.0010127278495649951 0.0010806715130897548 -0.00565952354008942 0.004347476307969404 -0.00565952354008942 -0.01416533568729714" pbc="T T T"
Sr       0.00003612       0.00009431      10.77859073      -0.01259506       0.00736672      -0.64148510
Sr       0.78809198       2.75865092      14.99059748      -0.43788124       0.27738706      -0.58866152
Ti       1.97047269       1.97057450      12.18046205       0.42203476      -0.39697627      -0.17876546
Ti       2.75839074       0.78812580      16.32807147      -0.02823740       0.06213919       0.37326761
O        0.00000902       1.97050521      12.35156952       0.60459131       0.38087577      -0.02475021
O        0.78837796       0.78819359      16.45030842       0.00809538      -0.00050934       0.51489555
O        1.97049401       3.94093312      12.22965805      -0.40966544      -0.68531546       0.02684900
O        2.75876140       2.75866935      16.43669916       0.04070930      -0.01441360       0.54631777
O        1.97043419       1.97038596      10.37865785       0.08051307      -0.11930201      -0.18240203
O        2.75873155       0.78814187      14.55070523      -0.26756468       0.48874820       0.15473439
10
Lattice="3.940949890606662 0.0 0.0 0.0 3.940949890606662 0.0 0.0 0.0 26.940967945119528" Properties=species:S:1:pos:R:3:forces:R:3 tau=tau27 tau_p=2 tau_q=7 stage=B constraint=xy_fixed_z_free force_label=raw_dft energy=-15499.245974405349 free_energy=-15499.245974405349 stress="0.0018785504806980782 -0.0008300144841403044 0.004073865338639967 -0.0008300144841403044 0.001855596540318092 -0.004750547501041963 0.004073865338639967 -0.004750547501041963 -0.009990473010985233" pbc="T T T"
Sr       0.00003612       0.00009431      10.73835790      -0.01258992       0.00923386      -0.76964173
Sr       0.78809198       2.75865092      15.03434746      -0.37679697       0.21663292      -0.62922376
Ti       1.97047269       1.97057450      12.12027337       0.35393729      -0.35446848      -0.10167890
Ti       2.75839074       0.78812580      16.37463901      -0.02925838       0.05673910       0.37455188
O        0.00000902       1.97050521      12.32488647       0.55571901       0.34931033      -0.12191966
O        0.78837796       0.78819359      16.51552190       0.00842422      -0.00020235       0.33084493
O        1.97049401       3.94093312      12.16328010      -0.32517025      -0.55507006       0.22318050
O        2.75876140       2.75866935      16.50473763       0.03310192      -0.01266165       0.35372569
O        1.97043419       1.97038596      10.31218668       0.06318846      -0.09813567       0.09278057
O        2.75873155       0.78814187      14.58708944      -0.27055513       0.38862250       0.24738049
10
Lattice="3.940949890606662 0.0 0.0 0.0 3.940949890606662 0.0 0.0 0.0 26.940967945119528" Properties=species:S:1:pos:R:3:forces:R:3 tau=tau27 tau_p=2 tau_q=7 stage=B constraint=xy_fixed_z_free force_label=raw_dft energy=-15499.334946786888 free_energy=-15499.334946786888 stress="0.005633815126863835 -0.0006124111293380343 0.0037727096408545473 -0.0006124111293380343 0.004615578331607644 -0.0039003335493672706 0.0037727096408545473 -0.0039003335493672706 -0.004574261238923669" pbc="T T T"
Sr       0.00003612       0.00009431      10.66227130      -0.01067239       0.00914619      -0.71585066
Sr       0.78809198       2.75865092      15.07086814      -0.32286679       0.16821185      -0.38085803
Ti       1.97047269       1.97057450      12.04273936       0.29196985      -0.31182133       0.05218054
Ti       2.75839074       0.78812580      16.44767081      -0.03035804       0.05166323       0.35381053
O        0.00000902       1.97050521      12.28567413       0.49112107       0.30613688      -0.31113999
O        0.78837796       0.78819359      16.60957379       0.00843862      -0.00000026       0.02610415
O        1.97049401       3.94093312      12.08432478      -0.24459496      -0.42952515       0.30237896
O        2.75876140       2.75866935      16.60314098       0.02619748      -0.01031578       0.03142248
O        1.97043419       1.97038596      10.22701580       0.04672312      -0.07652246       0.28828854
O        2.75873155       0.78814187      14.64204087      -0.25595820       0.29302683       0.35366347
10
Lattice="3.940949890606662 0.0 0.0 0.0 3.940949890606662 0.0 0.0 0.0 26.940967945119528" Properties=species:S:1:pos:R:3:forces:R:3 tau=tau27 tau_p=2 tau_q=7 stage=B constraint=xy_fixed_z_free force_label=raw_dft energy=-15499.381373625529 free_energy=-15499.381373625529 stress="0.008912555970741079 -0.0004746874870581165 0.0036138683734250423 -0.0004746874870581165 0.007349851709671611 -0.0035486791827458804 0.0036138683734250423 -0.0035486791827458804 -0.0013910087870271693" pbc="T T T"
Sr       0.00003612       0.00009431      10.59408062      -0.00804241       0.00740503      -0.50059533
Sr       0.78809198       2.75865092      15.08245629      -0.30055013       0.15271016      -0.08671791
Ti       1.97047269       1.97057450      11.99711414       0.26581530      -0.29062465       0.13999605
Ti       2.75839074       0.78812580      16.50548296      -0.03113220       0.04953564       0.26637400
O        0.00000902       1.97050521      12.25193804       0.44660576       0.27593131      -0.41088388
O        0.78837796       0.78819359      16.67172609       0.00806889      -0.00038772      -0.14004645
O        1.97049401       3.94093312      12.04103670      -0.20715995      -0.37020337       0.24846010
O        2.75876140       2.75866935      16.66830317       0.02297769      -0.00902174      -0.14746588
O        1.97043419       1.97038596      10.17675450       0.03958265      -0.06564026       0.27635837
O        2.75873155       0.78814187      14.68642745      -0.23616560       0.25029586       0.35452093
10
Lattice="3.940949890606662 0.0 0.0 0.0 3.940949890606662 0.0 0.0 0.0 26.940967945119528" Properties=species:S:1:pos:R:3:forces:R:3 tau=tau27 tau_p=2 tau_q=7 stage=B constraint=xy_fixed_z_free force_label=raw_dft energy=-15499.411464926205 free_energy=-15499.411464926205 stress="0.011459525195304356 -0.00036818120369498013 0.003506443932446706 -0.00036818120369498013 0.009756342819109374 -0.003400855806698769 0.003506443932446706 -0.003400855806698769 0.0004498972314477313" pbc="T T T"
Sr       0.00003612       0.00009431      10.53040927      -0.00546462       0.00500877      -0.21325167
Sr       0.78809198       2.75865092      15.08666079      -0.28918174       0.14980558       0.17007950
Ti       1.97047269       1.97057450      11.96987627       0.25409158      -0.27740609       0.13203643
Ti       2.75839074       0.78812580      16.55558092      -0.03105661       0.04837685       0.11728421
O        0.00000902       1.97050521      12.21579962       0.40846087       0.25004312      -0.40841845
O        0.78837796       0.78819359      16.71374732       0.00739089      -0.00128941      -0.18476487
O        1.97049401       3.94093312      12.01666828      -0.18664589      -0.33655458       0.16497021
O        2.75876140       2.75866935      16.71234860       0.02119129      -0.00795114      -0.20030102
O        1.97043419       1.97038596      10.14608088       0.03633869      -0.05882813       0.16136141
O        2.75873155       0.78814187      14.72814801      -0.21512446       0.22879501       0.26100425
10
Lattice="3.940949890606662 0.0 0.0 0.0 3.940949890606662 0.0 0.0 0.0 26.940967945119528" Properties=species:S:1:pos:R:3:forces:R:3 tau=tau27 tau_p=2 tau_q=7 stage=B constraint=xy_fixed_z_free force_label=raw_dft energy=-15499.42700276245 free_energy=-15499.42700276245 stress="0.012365746761506216 -0.0003057464858614174 0.003422891589463556 -0.0003057464858614174 0.01091597588710628 -0.003359538714014794 0.003422891589463556 -0.003359538714014794 0.0007877792338411295" pbc="T T T"
Sr       0.00003612       0.00009431      10.49070975      -0.00369082       0.00335606      -0.00254488
Sr       0.78809198       2.75865092      15.09296209      -0.28166872       0.15149377       0.27497100
Ti       1.97047269       1.97057450      11.95979621       0.24958855      -0.27010313       0.05865843
Ti       2.75839074       0.78812580      16.58513872      -0.03050434       0.04817065       0.00122847
O        0.00000902       1.97050521      12.18513154       0.38047005       0.23157001      -0.32771152
O        0.78837796       0.78819359      16.73052376       0.00683245      -0.00215381      -0.13240127
O        1.97049401       3.94093312      12.00926036      -0.17832323      -0.32148148       0.11614521
O        2.75876140       2.75866935      16.72973972       0.02032868      -0.00730528      -0.15046944
O        1.97043419       1.97038596      10.13472132       0.03572882      -0.05515890       0.03464279
O        2.75873155       0.78814187      14.75733650      -0.19876144       0.22161212       0.12748121
10
Lattice="3.940949890606662 0.0 0.0 0.0 3.940949890606662 0.0 0.0 0.0 26.940967945119528" Properties=species:S:1:pos:R:3:forces:R:3 tau=tau27 tau_p=2 tau_q=7 stage=B constraint=xy_fixed_z_free force_label=raw_dft energy=-15499.436951380447 free_energy=-15499.436951380447 stress="0.012160079455701538 -0.00026718386602304044 0.0033081218875636244 -0.00026718386602304044 0.01114918792136694 -0.0033127126756396217 0.0033081218875636244 -0.0033127126756396217 0.00037185383415577793" pbc="T T T"
Sr       0.00003612       0.00009431      10.46725412      -0.00257753       0.00243201       0.11609971
Sr       0.78809198       2.75865092      15.10755549      -0.27036975       0.15134824       0.25099700
Ti       1.97047269       1.97057450      11.95410780       0.24351818      -0.26178587      -0.02474507
Ti       2.75839074       0.78812580      16.60268040      -0.02897093       0.04725739      -0.06747552
O        0.00000902       1.97050521      12.15622253       0.35487034       0.21548236      -0.21704404
O        0.78837796       0.78819359      16.73617598       0.00631052      -0.00293491      -0.03997731
O        1.97049401       3.94093312      12.00758047      -0.17346693      -0.31107829       0.09896073
O        2.75876140       2.75866935      16.73516088       0.01942211      -0.00691575      -0.05683578
O        1.97043419       1.97038596      10.12933385       0.03568485      -0.05202910      -0.06238113
O        2.75873155       0.78814187      14.77924845      -0.18442060       0.21822392       0.00240141
10
Lattice="3.940949890606662 0.0 0.0 0.0 3.940949890606662 0.0 0.0 0.0 26.940967945119528" Properties=species:S:1:pos:R:3:forces:R:3 tau=tau27 tau_p=2 tau_q=7 stage=B constraint=xy_fixed_z_free force_label=raw_dft energy=-15499.443799941539 free_energy=-15499.443799941539 stress="0.011308947346411647 -0.0002433117680278547 0.0031456079896733215 -0.0002433117680278547 0.010746116728294383 -0.0032126334955828815 0.0031456079896733215 -0.0032126334955828815 -0.00028095623025103223" pbc="T T T"
Sr       0.00003612       0.00009431      10.45410663      -0.00204043       0.00211833       0.14262243
Sr       0.78809198       2.75865092      15.13091522      -0.25320892       0.14697480       0.13664616
Ti       1.97047269       1.97057450      11.94510901       0.23272289      -0.24974745      -0.08024619
Ti       2.75839074       0.78812580      16.61413252      -0.02687086       0.04514497      -0.07990526
O        0.00000902       1.97050521      12.12803627       0.32947916       0.20004828      -0.11479281
O        0.78837796       0.78819359      16.74070235       0.00581429      -0.00344554       0.04671694
O        1.97049401       3.94093312      12.00517554      -0.16826045      -0.29956617       0.09723989
O        2.75876140       2.75866935      16.73905675       0.01817384      -0.00664810       0.03333435
O        1.97043419       1.97038596      10.12149120       0.03509453      -0.04840616      -0.10363217
O        2.75873155       0.78814187      14.79659446      -0.17090380       0.21352703      -0.07798336
10
Lattice="3.940949890606662 0.0 0.0 0.0 3.940949890606662 0.0 0.0 0.0 26.940967945119528" Properties=species:S:1:pos:R:3:forces:R:3 tau=tau27 tau_p=2 tau_q=7 stage=B constraint=xy_fixed_z_free force_label=raw_dft energy=-15499.448155667753 free_energy=-15499.448155667753 stress="0.010481687335116941 -0.00022586677333906514 0.002961976466633431 -0.00022586677333906514 0.010240211882319484 -0.0030703190652269664 0.002961976466633431 -0.0030703190652269664 -0.0006032295531860398" pbc="T T T"
Sr       0.00003612       0.00009431      10.44515980      -0.00188873       0.00215201       0.10413713
Sr       0.78809198       2.75865092      15.15711383      -0.23369425       0.13945226       0.00942978
Ti       1.97047269       1.97057450      11.92981835       0.21861679      -0.23526828      -0.08960809
Ti       2.75839074       0.78812580      16.62447672      -0.02450338       0.04259444      -0.05133645
O        0.00000902       1.97050521      12.10225203       0.30629038       0.18598820      -0.05199568
O        0.78837796       0.78819359      16.75095121       0.00537669      -0.00366794       0.08690123
O        1.97049401       3.94093312      11.99880920      -0.16163086      -0.28606351       0.09258260
O        2.75876140       2.75866935      16.74874011       0.01665998      -0.00648638       0.07720740
O        1.97043419       1.97038596      10.10725474       0.03360997      -0.04444460      -0.08678810
O        2.75873155       0.78814187      14.81074397      -0.15883633       0.20574379      -0.09052983
10
Lattice="3.940949890606662 0.0 0.0 0.0 3.940949890606662 0.0 0.0 0.0 26.940967945119528" Properties=species:S:1:pos:R:3:forces:R:3 tau=tau27 tau_p=2 tau_q=7 stage=B constraint=xy_fixed_z_free force_label=raw_dft energy=-15499.450851907723 free_energy=-15499.450851907723 stress="0.010053825886433996 -0.00020842177865027553 0.0027893628349759344 -0.00020842177865027553 0.01001526326659562 -0.0029197412163342565 0.0027893628349759344 -0.0029197412163342565 -0.0004333703943741412" pbc="T T T"
Sr       0.00003612       0.00009431      10.43470784      -0.00186482       0.00225537       0.05106777
Sr       0.78809198       2.75865092      15.18035179      -0.21569679       0.13168548      -0.06568320
Ti       1.97047269       1.97057450      11.90970582       0.20433328      -0.22096061      -0.06258836
Ti       2.75839074       0.78812580      16.63730794      -0.02251849       0.03998143      -0.01450282
O        0.00000902       1.97050521      12.07851420       0.28606994       0.17359831      -0.02825514
O        0.78837796       0.78819359      16.76827494       0.00505299      -0.00366948       0.07474634
O        1.97049401       3.94093312      11.98900574      -0.15418623      -0.27193813       0.07370144
O        2.75876140       2.75866935      16.76577092       0.01521630      -0.00625652       0.06772183
O        1.97043419       1.97038596      10.08762110       0.03167033      -0.04055761      -0.04135748
O        2.75873155       0.78814187      14.82405967      -0.14807652       0.19586201      -0.05485063
10
Lattice="3.940949890606662 0.0 0.0 0.0 3.940949890606662 0.0 0.0 0.0 26.940967945119528" Properties=species:S:1:pos:R:3:forces:R:3 tau=tau27 tau_p=2 tau_q=7 stage=B constraint=xy_fixed_z_free force_label=raw_dft energy=-15499.452104447722 free_energy=-15499.452104447722 stress="0.010061171147355592 -0.00019464941442228376 0.0026764294483064017 -0.00019464941442228376 0.010147477963184342 -0.0028196620362775163 0.0026764294483064017 -0.0028196620362775163 -1.2854206612792324e-05" pbc="T T T"
Sr       0.00003612       0.00009431      10.42485364      -0.00181983       0.00227363       0.02094806
Sr       0.78809198       2.75865092      15.19341080      -0.20445412       0.12693048      -0.06898218
Ti       1.97047269       1.97057450      11.89311547       0.19521846      -0.21114799      -0.02750438
Ti       2.75839074       0.78812580      16.64897451      -0.02142423       0.03828218       0.01062328
O        0.00000902       1.97050521      12.06143614       0.27290512       0.16538673      -0.02790804
O        0.78837796       0.78819359      16.78493177       0.00484602      -0.00365971       0.03545731
O        1.97049401       3.94093312      11.98118757      -0.14903862      -0.26244895       0.04552884
O        2.75876140       2.75866935      16.78232277       0.01423646      -0.00606138       0.02964842
O        1.97043419       1.97038596      10.07104419       0.03021278      -0.03795077      -0.00376847
O        2.75873155       0.78814187      14.83404310      -0.14068202       0.18839604      -0.01404311
10
Lattice="3.940949890606662 0.0 0.0 0.0 3.940949890606662 0.0 0.0 0.0 26.940967945119528" Properties=species:S:1:pos:R:3:forces:R:3 tau=tau27 tau_p=2 tau_q=7 stage=B constraint=xy_fixed_z_free force_label=raw_dft energy=-15499.45249982913 free_energy=-15499.45249982913 stress="0.010193385843944313 -0.00018914046873108706 0.0026378668284680246 -0.00018914046873108706 0.010370590263677806 -0.0027930354654367323 0.0026378668284680246 -0.0027930354654367323 0.0002543296594102481" pbc="T T T"
Sr       0.00003612       0.00009431      10.42030829      -0.00183371       0.00227954       0.01556957
Sr       0.78809198       2.75865092      15.19571049      -0.20097928       0.12602648      -0.04183288
Ti       1.97047269       1.97057450      11.88640855       0.19266973      -0.20792331      -0.00761535
Ti       2.75839074       0.78812580      16.65457183      -0.02113550       0.03794665       0.01391867
O        0.00000902       1.97050521      12.05388326       0.26808250       0.16228520      -0.02779491
O        0.78837796       0.78819359      16.79266970       0.00477402      -0.00368542       0.00930019
O        1.97049401       3.94093312      11.97939729      -0.14775641      -0.26003469       0.02419254
O        2.75876140       2.75866935      16.78992355       0.01389656      -0.00597139       0.00421918
O        1.97043419       1.97038596      10.06438502       0.02978674      -0.03699843       0.00666636
O        2.75873155       0.78814187      14.83806199      -0.13750465       0.18607562       0.00337689
10
Lattice="3.940949890606662 0.0 0.0 0.0 3.940949890606662 0.0 0.0 0.0 26.940967945119528" Properties=species:S:1:pos:R:3:forces:R:3 tau=tau27 tau_p=2 tau_q=7 stage=B constraint=xy_fixed_z_free force_label=raw_dft energy=-15499.45267969638 free_energy=-15499.45267969638 stress="0.010258575034623475 -0.00018730415350068813 0.0026314397251616284 -0.00018730415350068813 0.010525758900646514 -0.0028022170415887265 0.0026314397251616284 -0.0028022170415887265 0.0003443091056997944" pbc="T T T"
Sr       0.00003612       0.00009431      10.42000756      -0.00187819       0.00232531       0.01471391
Sr       0.78809198       2.75865092      15.19362498      -0.20083941       0.12686312      -0.01618201
Ti       1.97047269       1.97057450      11.88535055       0.19308522      -0.20768574       0.00124339
Ti       2.75839074       0.78812580      16.65592842      -0.02113601       0.03818422       0.00868673
O        0.00000902       1.97050521      12.05102560       0.26711294       0.16156324      -0.02110567
O        0.78837796       0.78819359      16.79447830       0.00476220      -0.00374790      -0.00256108
O        1.97049401       3.94093312      11.98138431      -0.14861336      -0.26138555       0.00966889
O        2.75876140       2.75866935      16.79146844       0.01386056      -0.00595596      -0.00663396
O        1.97043419       1.97038596      10.06353659       0.02993201      -0.03685522       0.00553019
O        2.75873155       0.78814187      14.83851524      -0.13628621       0.18669500       0.00663936
