10
Lattice="3.940949890606662 0.0 0.0 0.0 3.940949890606662 0.0 0.0 0.0 26.940967945119528" Properties=species:S:1:pos:R:3:forces:R:3 tau=tau53 tau_p=5 tau_q=3 stage=A constraint=rigid_scf force_label=raw_dft energy=-15496.817642890366 free_energy=-15496.817642890366 stress="0.020570403210928515 -9.181576151994517e-07 -9.181576151994517e-07 -9.181576151994517e-07 0.010071270881122786 0.005061802932594578 -9.181576151994517e-07 0.005061802932594578 -0.023987785854700874" pbc="T T T"
Sr       0.00003626       0.00009419      10.75260867      -0.00008639      -0.01223408       0.63171413
Sr       1.97037682       1.18227078      14.64522241      -0.00055562      -1.64070963       5.49963697
Ti       1.97047258       1.97057465      12.38212169       0.00017895       1.67956517      -5.62795327
Ti       3.94067560       3.15269568      16.28444791       0.00045586       0.05286317      -0.66578048
O        0.00000906       1.97050529      12.45001441      -0.00000514      -1.02663841      -1.10557796
O        1.97066293       3.15276346      16.39256827      -0.00053350       0.13854492      -0.18506672
O        1.97049386       3.94093294      12.44909065      -0.00000309       0.26447344      -0.50022123
O        0.00009655       1.18228930      16.37955485       0.00055896       0.01861839      -0.06415108
O        1.97043435       1.97038588      10.49176941       0.00015298       0.07518497       0.44632783
O        0.00006660       3.15271183      14.44792112      -0.00016327       0.45033180       1.57107207
