10
Lattice="3.940949890606662 0.0 0.0 0.0 3.940949890606662 0.0 0.0 0.0 26.940967945119528" Properties=species:S:1:pos:R:3:forces:R:3 tau=tau63 tau_p=6 tau_q=3 stage=B constraint=xy_fixed_z_free force_label=raw_dft energy=-15499.16634940628 free_energy=-15499.16634940628 stress="0.00760234505385146 -9.640654959594242e-05 -0.0013267377539632078 -9.640654959594242e-05 0.010175940849255523 0.002412918212744159 -0.0013267377539632078 0.002412918212744159 -0.0021567522381035122" pbc="T T T"
Sr       0.00003626       0.00009419      10.47922576       0.00397287      -0.00607783      -0.62899622
Sr       2.36447180       1.18227078      15.20842475       0.09972666      -0.24602012       0.20749780
Ti       1.97047258       1.97057465      11.84023163      -0.12052612       0.17483630       0.03681511
Ti       0.39382070       3.15269568      16.65059250       0.01144604      -0.00858800       0.23254060
O        0.00000906       1.97050529      11.90101211      -0.12852019      -0.13184103       0.48375383
O        2.36475792       3.15276346      16.81449188      -0.00345273       0.01976793      -0.25193314
O        1.97049386       3.94093294      12.07547402       0.11134188       0.26441251      -0.18652068
O        0.39419154       1.18228930      16.83963829      -0.00507304       0.00563072      -0.34776201
O        1.97043435       1.97038588      10.04229501      -0.02139646       0.02366418       0.00868699
O        0.39416159       3.15271183      14.82393385       0.05248136      -0.09578465       0.44591722
10
Lattice="3.940949890606662 0.0 0.0 0.0 3.940949890606662 0.0 0.0 0.0 26.940967945119528" Properties=species:S:1:pos:R:3:forces:R:3 tau=tau63 tau_p=6 tau_q=3 stage=B constraint=xy_fixed_z_free force_label=raw_dft energy=-15499.187341220191 free_energy=-15499.187341220191 stress="0.007879628653641694 -9.181576151994517e-05 -0.001339591960576 -9.181576151994517e-05 0.010278774502157861 0.002386291641903375 -0.001339591960576 0.002386291641903375 -0.002565332376867268" pbc="T T T"
Sr       0.00003612       0.00009431      10.46627990       0.00338537      -0.00519286      -0.49027003
Sr       2.36447194       1.18227095      15.21269533       0.10061395      -0.24371461       0.17967974
Ti       1.97047269       1.97057450      11.84098937      -0.11933338       0.17419712       0.08811916
Ti       0.39382079       3.15269575      16.65537862       0.01185021      -0.00851472       0.17363354
O        0.00000902       1.97050521      11.91096857      -0.12894057      -0.13187471       0.37815760
O        2.36475793       3.15276354      16.80930671      -0.00352498       0.01977821      -0.16449455
O        1.97049401       3.94093312      12.07163514       0.10837097       0.25872883      -0.20663956
O        0.39419145       1.18228938      16.83248096      -0.00528927       0.00550062      -0.25233629
O        1.97043419       1.97038596      10.04247377      -0.02085036       0.02355773      -0.05268910
O        0.39416160       3.15271182      14.83311158       0.05371780      -0.09246535       0.34683925
10
Lattice="3.940949890606662 0.0 0.0 0.0 3.940949890606662 0.0 0.0 0.0 26.940967945119528" Properties=species:S:1:pos:R:3:forces:R:3 tau=tau63 tau_p=6 tau_q=3 stage=B constraint=xy_fixed_z_free force_label=raw_dft energy=-15499.205040048486 free_energy=-15499.205040048486 stress="0.008242300911645479 -8.722497344394792e-05 -0.001357955112879989 -8.722497344394792e-05 0.010352227111373818 0.00236058322867779 -0.001357955112879989 0.00236058322867779 -0.0027618181065199505" pbc="T T T"
Sr       0.00003612       0.00009431      10.45203950       0.00274002      -0.00421918      -0.35681615
Sr       2.36447194       1.18227095      15.21788298       0.10187919      -0.24142144       0.14748568
Ti       1.97047269       1.97057450      11.84344513      -0.11837513       0.17408837       0.04909650
Ti       0.39382079       3.15269575      16.66043529       0.01235878      -0.00843450       0.12590358
O        0.00000902       1.97050521      11.92195064      -0.12970727      -0.13217579       0.27927554
O        2.36475793       3.15276354      16.80447314      -0.00361163       0.01979055      -0.07522559
O        1.97049401       3.94093312      12.06574003       0.10501337       0.25234760      -0.20681362
O        0.39419145       1.18228938      16.82511890      -0.00555667       0.00537798      -0.15273587
O        1.97043419       1.97038596      10.04104718      -0.02024667       0.02356982      -0.04453408
O        0.39416160       3.15271182      14.84318717       0.05550600      -0.08892340       0.23436428
10
Lattice="3.940949890606662 0.0 0.0 0.0 3.940949890606662 0.0 0.0 0.0 26.940967945119528" Properties=species:S:1:pos:R:3:forces:R:3 tau=tau63 tau_p=6 tau_q=3 stage=B constraint=xy_fixed_z_free force_label=raw_dft energy=-15499.22140864828 free_energy=-15499.22140864828 stress="0.008821658366836332 -8.079787013755175e-05 -0.001384581683720773 -8.079787013755175e-05 0.010380689997445002 0.0023165116631482167 -0.001384581683720773 0.0023165116631482167 -0.0030051298745478053" pbc="T T T"
Sr       0.00003612       0.00009431      10.43067889       0.00186199      -0.00286729      -0.16818177
Sr       2.36447194       1.18227095      15.22633459       0.10372010      -0.23709428       0.09593583
Ti       1.97047269       1.97057450      11.84644766      -0.11674942       0.17369730      -0.00474574
Ti       0.39382079       3.15269575      16.66800899       0.01304578      -0.00822496       0.06207749
O        0.00000902       1.97050521      11.93858965      -0.13097842      -0.13290187       0.13785484
O        2.36475793       3.15276354      16.79902299      -0.00374173       0.01965146       0.04758443
O        1.97049401       3.94093312      12.05463609       0.09982128       0.24223623      -0.19730311
O        0.39419145       1.18228938      16.81533010      -0.00597242       0.00515275      -0.01169415
O        1.97043419       1.97038596      10.03871397      -0.01931593       0.02365261      -0.04414584
O        0.39416160       3.15271182      14.85755703       0.05830851      -0.08330194       0.08261829
10
Lattice="3.940949890606662 0.0 0.0 0.0 3.940949890606662 0.0 0.0 0.0 26.940967945119528" Properties=species:S:1:pos:R:3:forces:R:3 tau=tau63 tau_p=6 tau_q=3 stage=B constraint=xy_fixed_z_free force_label=raw_dft energy=-15499.22772196145 free_energy=-15499.22772196145 stress="0.009418460816715974 -7.528892444635504e-05 -0.0014093719393311584 -7.528892444635504e-05 0.010289792393540255 0.002264176679081848 -0.0014093719393311584 0.002264176679081848 -0.003150198777749319" pbc="T T T"
Sr       0.00003612       0.00009431      10.41025909       0.00112511      -0.00167456      -0.00288632
Sr       2.36447194       1.18227095      15.23537454       0.10530210      -0.23162117       0.04242526
Ti       1.97047269       1.97057450      11.84815544      -0.11486686       0.17304450      -0.05609144
Ti       0.39382079       3.15269575      16.67537028       0.01352786      -0.00792774       0.01138330
O        0.00000902       1.97050521      11.95472749      -0.13238662      -0.13401412       0.01113185
O        2.36475793       3.15276354      16.79689320      -0.00383737       0.01931181       0.14432502
O        1.97049401       3.94093312      12.04036623       0.09457700       0.23159289      -0.17342579
O        0.39419145       1.18228938      16.80821997      -0.00633263       0.00489281       0.10667121
O        1.97043419       1.97038596      10.03570456      -0.01834636       0.02382436      -0.04904585
O        0.39416160       3.15271182      14.87024915       0.06123751      -0.07742903      -0.03448724
10
Lattice="3.940949890606662 0.0 0.0 0.0 3.940949890606662 0.0 0.0 0.0 26.940967945119528" Properties=species:S:1:pos:R:3:forces:R:3 tau=tau63 tau_p=6 tau_q=3 stage=B constraint=xy_fixed_z_free force_label=raw_dft energy=-15499.229446482901 free_energy=-15499.229446482901 stress="0.00962780075298145 -7.437076683115559e-05 -0.001416717200252754 -7.437076683115559e-05 0.0102154216267091 0.002240304581086662 -0.001416717200252754 0.002240304581086662 -0.0030923548479917535" pbc="T T T"
Sr       0.00003612       0.00009431      10.40516731       0.00098576      -0.00142953       0.02737042
Sr       2.36447194       1.18227095      15.23847886       0.10553016      -0.22891586       0.03075091
Ti       1.97047269       1.97057450      11.84721910      -0.11404694       0.17260047      -0.06879912
Ti       0.39382079       3.15269575      16.67746460       0.01361091      -0.00771305       0.00866719
O        0.00000902       1.97050521      11.95893675      -0.13294197      -0.13465741      -0.02086167
O        2.36475793       3.15276354      16.79947018      -0.00385074       0.01899608       0.14708741
O        1.97049401       3.94093312      12.03317993       0.09279985       0.22771772      -0.15361082
O        0.39419145       1.18228938      16.80877992      -0.00639999       0.00477942       0.11834042
O        1.97043419       1.97038596      10.03396464      -0.01802626       0.02394031      -0.05172982
O        0.39416160       3.15271182      14.87265867       0.06233922      -0.07531790      -0.03721466
10
Lattice="3.940949890606662 0.0 0.0 0.0 3.940949890606662 0.0 0.0 0.0 26.940967945119528" Properties=species:S:1:pos:R:3:forces:R:3 tau=tau63 tau_p=6 tau_q=3 stage=B constraint=xy_fixed_z_free force_label=raw_dft energy=-15499.231438084089 free_energy=-15499.231438084089 stress="0.009818777536942937 -7.345260921595614e-05 -0.0014203898307135517 -7.345260921595614e-05 0.010123605865189155 0.0022145961678610776 -0.0014203898307135517 0.0022145961678610776 -0.0030032935593174064" pbc="T T T"
Sr       0.00003612       0.00009431      10.40134543       0.00090091      -0.00128684       0.04183956
Sr       2.36447194       1.18227095      15.24143511       0.10554507      -0.22592232       0.02435992
Ti       1.97047269       1.97057450      11.84539829      -0.11313908       0.17198315      -0.07643041
Ti       0.39382079       3.15269575      16.67937349       0.01364304      -0.00743640       0.01457096
O        0.00000902       1.97050521      11.96205623      -0.13339886      -0.13528014      -0.04557152
O        2.36475793       3.15276354      16.80351522      -0.00386540       0.01861119       0.13557298
O        1.97049401       3.94093312      12.02527501       0.09110396       0.22389012      -0.12991321
O        0.39419145       1.18228938      16.81080882      -0.00642956       0.00466115       0.11577883
O        1.97043419       1.97038596      10.03184195      -0.01772133       0.02404984      -0.05472953
O        0.39416160       3.15271182      14.87427040       0.06336149      -0.07326924      -0.02547758
10
Lattice="3.940949890606662 0.0 0.0 0.0 3.940949890606662 0.0 0.0 0.0 26.940967945119528" Properties=species:S:1:pos:R:3:forces:R:3 tau=tau63 tau_p=6 tau_q=3 stage=B constraint=xy_fixed_z_free force_label=raw_dft energy=-15499.234269700692 free_energy=-15499.234269700692 stress="0.010068516408277188 -7.345260921595614e-05 -0.0014240624611743494 -7.345260921595614e-05 0.009983127750063638 0.0021769517056379 -0.0014240624611743494 0.0021769517056379 -0.0028554701832702945" pbc="T T T"
Sr       0.00003612       0.00009431      10.39691105       0.00084152      -0.00116882       0.04811562
Sr       2.36447194       1.18227095      15.24562416       0.10531110      -0.22138407       0.01935732
Ti       1.97047269       1.97057450      11.84186845      -0.11171340       0.17087732      -0.08210278
Ti       0.39382079       3.15269575      16.68223038       0.01360242      -0.00704379       0.02859015
O        0.00000902       1.97050521      11.96533027      -0.13383029      -0.13599567      -0.07404134
O        2.36475793       3.15276354      16.81043537      -0.00386848       0.01801623       0.10986067
O        1.97049401       3.94093312      12.01341762       0.08873391       0.21844015      -0.09340458
O        0.39419145       1.18228938      16.81490983      -0.00643316       0.00450046       0.10256362
O        1.97043419       1.97038596      10.02830183      -0.01728424       0.02418071      -0.05852602
O        0.39416160       3.15271182      14.87629101       0.06464062      -0.07042252      -0.00041318
10
Lattice="3.940949890606662 0.0 0.0 0.0 3.940949890606662 0.0 0.0 0.0 26.940967945119528" Properties=species:S:1:pos:R:3:forces:R:3 tau=tau63 tau_p=6 tau_q=3 stage=B constraint=xy_fixed_z_free force_label=raw_dft energy=-15499.237771533684 free_energy=-15499.237771533684 stress="0.010392626046442595 -7.161629398555724e-05 -0.001424980618789549 -7.161629398555724e-05 0.00976276992241577 0.002120025933495534 -0.001424980618789549 0.002120025933495534 -0.002636948670852825" pbc="T T T"
Sr       0.00003612       0.00009431      10.39129365       0.00081195      -0.00104875       0.04195963
Sr       2.36447194       1.18227095      15.25185429       0.10462744      -0.21447243       0.01648026
Ti       1.97047269       1.97057450      11.83554258      -0.10941098       0.16881889      -0.08386861
Ti       0.39382079       3.15269575      16.68697198       0.01342733      -0.00653292       0.05083739
O        0.00000902       1.97050521      11.96853718      -0.13405115      -0.13660425      -0.10814908
O        2.36475793       3.15276354      16.82155000      -0.00385126       0.01714180       0.06697364
O        1.97049401       3.94093312      11.99563154       0.08531512       0.21053864      -0.03870462
O        0.39419145       1.18228938      16.82206479      -0.00639408       0.00426803       0.07720714
O        1.97043419       1.97038596      10.02235353      -0.01663581       0.02430618      -0.06250223
O        0.39416160       3.15271182      14.87952045       0.06616117      -0.06641494       0.03976648
10
Lattice="3.940949890606662 0.0 0.0 0.0 3.940949890606662 0.0 0.0 0.0 26.940967945119528" Properties=species:S:1:pos:R:3:forces:R:3 tau=tau63 tau_p=6 tau_q=3 stage=B constraint=xy_fixed_z_free force_label=raw_dft energy=-15499.24124520289 free_energy=-15499.24124520289 stress="0.010791106451439155 -6.886182113995888e-05 -0.0014176353578679536 -6.886182113995888e-05 0.00942580607763757 0.0020337191176667854 -0.0014176353578679536 0.0020337191176667854 -0.0023367111306826045" pbc="T T T"
Sr       0.00003612       0.00009431      10.38361577       0.00082250      -0.00094025       0.01334994
Sr       2.36447194       1.18227095      15.26150808       0.10306704      -0.20400212       0.01728707
Ti       1.97047269       1.97057450      11.82437261      -0.10560189       0.16507639      -0.07716678
Ti       0.39382079       3.15269575      16.69539096       0.01294576      -0.00592279       0.08196574
O        0.00000902       1.97050521      11.97063028      -0.13351584      -0.13653895      -0.14866273
O        2.36475793       3.15276354      16.83905566      -0.00378235       0.01589302       0.00358592
O        1.97049401       3.94093312      11.96895241       0.08034132       0.19900467       0.04151920
O        0.39419145       1.18228938      16.83408932      -0.00628918       0.00395179       0.03781759
O        1.97043419       1.97038596      10.01214109      -0.01567782       0.02432881      -0.06511344
O        0.39416160       3.15271182      14.88556379       0.06768995      -0.06085056       0.09541775
10
Lattice="3.940949890606662 0.0 0.0 0.0 3.940949890606662 0.0 0.0 0.0 26.940967945119528" Properties=species:S:1:pos:R:3:forces:R:3 tau=tau63 tau_p=6 tau_q=3 stage=B constraint=xy_fixed_z_free force_label=raw_dft energy=-15499.243271634647 free_energy=-15499.243271634647 stress="0.01098483770824624 -6.610734829436053e-05 -0.0014029448360247622 -6.610734829436053e-05 0.009198102989068108 0.0019703662422180233 -0.0014029448360247622 0.0019703662422180233 -0.002142061716260321" pbc="T T T"
Sr       0.00003612       0.00009431      10.37804420       0.00085258      -0.00093460      -0.02325871
Sr       2.36447194       1.18227095      15.26924727       0.10120916      -0.19615435       0.02269693
Ti       1.97047269       1.97057450      11.81420302      -0.10229211       0.16146091      -0.06483911
Ti       0.39382079       3.15269575      16.70363628       0.01252410      -0.00540986       0.09657578
O        0.00000902       1.97050521      11.96859336      -0.13195518      -0.13507728      -0.16678463
O        2.36475793       3.15276354      16.85249219      -0.00371910       0.01500496      -0.03499477
O        1.97049401       3.94093312      11.94982707       0.07674846       0.19075246       0.09429418
O        0.39419145       1.18228938      16.84421106      -0.00618196       0.00371704       0.01347824
O        1.97043419       1.97038596      10.00290267      -0.01500187       0.02406784      -0.06190754
O        0.39416160       3.15271182      14.89216284       0.06781645      -0.05742713       0.12473964
10
Lattice="3.940949890606662 0.0 0.0 0.0 3.940949890606662 0.0 0.0 0.0 26.940967945119528" Properties=species:S:1:pos:R:3:forces:R:3 tau=tau63 tau_p=6 tau_q=3 stage=B constraint=xy_fixed_z_free force_label=raw_dft energy=-15499.246273458455 free_energy=-15499.246273458455 stress="0.01107022636645979 -6.059840260316382e-05 -0.0013717274771079808 -6.059840260316382e-05 0.00897682700380504 0.0018996681058476657 -0.0013717274771079808 0.0018996681058476657 -0.001965775454142026" pbc="T T T"
Sr       0.00003612       0.00009431      10.37060430       0.00088497      -0.00096673      -0.07693178
Sr       2.36447194       1.18227095      15.27949108       0.09811870      -0.18687369       0.03367117
Ti       1.97047269       1.97057450      11.79977254      -0.09803745       0.15608910      -0.04291325
Ti       0.39382079       3.15269575      16.71642395       0.01192015      -0.00498048       0.09819172
O        0.00000902       1.97050521      11.96098964      -0.12835256      -0.13128670      -0.17282621
O        2.36475793       3.15276354      16.86857527      -0.00358155       0.01402640      -0.06303394
O        1.97049401       3.94093312      11.92878919       0.07265938       0.18146203       0.14208173
O        0.39419145       1.18228938      16.85759633      -0.00600558       0.00348770      -0.00344734
O        1.97043419       1.97038596       9.98966061      -0.01418529       0.02342481      -0.05224250
O        0.39416160       3.15271182      14.90341705       0.06657923      -0.05438243       0.13745066
10
Lattice="3.940949890606662 0.0 0.0 0.0 3.940949890606662 0.0 0.0 0.0 26.940967945119528" Properties=species:S:1:pos:R:3:forces:R:3 tau=tau63 tau_p=6 tau_q=3 stage=B constraint=xy_fixed_z_free force_label=raw_dft energy=-15499.252217241034 free_energy=-15499.252217241034 stress="0.011012382436702222 -4.958051122077039e-05 -0.0013019474983528225 -4.958051122077039e-05 0.008728006290085988 0.0017922436648693297 -0.0013019474983528225 0.0017922436648693297 -0.0017564355178765513" pbc="T T T"
Sr       0.00003612       0.00009431      10.35547895       0.00090014      -0.00114003      -0.16739167
Sr       2.36447194       1.18227095      15.29858866       0.09184726      -0.17211710       0.05683398
Ti       1.97047269       1.97057450      11.77256525      -0.09126336       0.14609060      -0.00112820
Ti       0.39382079       3.15269575      16.74232922       0.01123701      -0.00471283       0.08003638
O        0.00000902       1.97050521      11.94016821      -0.11990700      -0.12213717      -0.16162674
O        2.36475793       3.15276354      16.89518683      -0.00332469       0.01256112      -0.07932136
O        1.97049401       3.94093312      11.89723237       0.06637097       0.16731762       0.19115638
O        0.39419145       1.18228938      16.88184936      -0.00553456       0.00312543      -0.01105883
O        1.97043419       1.97038596       9.96423904      -0.01290077       0.02196905      -0.02950161
O        0.39416160       3.15271182      14.92768207       0.06257474      -0.05095618       0.12200193
10
Lattice="3.940949890606662 0.0 0.0 0.0 3.940949890606662 0.0 0.0 0.0 26.940967945119528" Properties=species:S:1:pos:R:3:forces:R:3 tau=tau63 tau_p=6 tau_q=3 stage=B constraint=xy_fixed_z_free force_label=raw_dft energy=-15499.261243937348 free_energy=-15499.261243937348 stress="0.010706635950840806 -3.2135516531980806e-05 -0.0011798325355312955 -3.2135516531980806e-05 0.008589364490190871 0.0016508473921286143 -0.0011798325355312955 0.0016508473921286143 -0.0015581134729934693" pbc="T T T"
Sr       0.00003612       0.00009431      10.32611817       0.00075642      -0.00120790      -0.27775345
Sr       2.36447194       1.18227095      15.33110835       0.08161247      -0.15221882       0.09357299
Ti       1.97047269       1.97057450      11.72800000      -0.08252547       0.13075037       0.06761256
Ti       0.39382079       3.15269575      16.78767433       0.01098915      -0.00488510       0.01715980
O        0.00000902       1.97050521      11.89731106      -0.10490589      -0.10580038      -0.12025589
O        2.36475793       3.15276354      16.93467663      -0.00289918       0.01068293      -0.05796886
O        1.97049401       3.94093312      11.85582022       0.05811979       0.14851412       0.20924589
O        0.39419145       1.18228938      16.92107964      -0.00467838       0.00270891       0.00899423
O        1.97043419       1.97038596       9.92154438      -0.01124292       0.01926836       0.00781847
O        0.39416160       3.15271182      14.97198718       0.05477427      -0.04781223       0.05157427
10
Lattice="3.940949890606662 0.0 0.0 0.0 3.940949890606662 0.0 0.0 0.0 26.940967945119528" Properties=species:S:1:pos:R:3:forces:R:3 tau=tau63 tau_p=6 tau_q=3 stage=B constraint=xy_fixed_z_free force_label=raw_dft energy=-15499.268855505641 free_energy=-15499.268855505641 stress="0.010388035258366598 -2.1117625149587388e-05 -0.0010742444097833585 -2.1117625149587388e-05 0.008817985736375534 0.0015627042610694667 -0.0010742444097833585 0.0015627042610694667 -0.001426816934019948" pbc="T T T"
Sr       0.00003612       0.00009431      10.29449253       0.00060549      -0.00092020      -0.30379924
Sr       2.36447194       1.18227095      15.36041882       0.07322270      -0.13895141       0.11445831
Ti       1.97047269       1.97057450      11.69242397      -0.07450928       0.11896906       0.09806007
Ti       0.39382079       3.15269575      16.82697804       0.00920892      -0.00571016      -0.04832440
O        0.00000902       1.97050521      11.85423196      -0.09227998      -0.09179327      -0.06731354
O        2.36475793       3.15276354      16.96396814      -0.00252020       0.00960538      -0.00163702
O        1.97049401       3.94093312      11.83140323       0.05273281       0.13629521       0.16113026
O        0.39419145       1.18228938      16.95357331      -0.00413562       0.00248754       0.05012340
O        1.97043419       1.97038596       9.88565483      -0.01001830       0.01680807       0.03742138
O        0.39416160       3.15271182      15.01217513       0.04769345      -0.04678996      -0.04011924
10
Lattice="3.940949890606662 0.0 0.0 0.0 3.940949890606662 0.0 0.0 0.0 26.940967945119528" Properties=species:S:1:pos:R:3:forces:R:3 tau=tau63 tau_p=6 tau_q=3 stage=B constraint=xy_fixed_z_free force_label=raw_dft energy=-15499.275985024271 free_energy=-15499.275985024271 stress="0.010209912681017903 -1.5608679458390678e-05 -0.0009723289144962194 -1.5608679458390678e-05 0.009401933979642386 0.0014874153366231117 -0.0009723289144962194 0.0014874153366231117 -0.0012119680520632763" pbc="T T T"
Sr       0.00003612       0.00009431      10.25304654       0.00033501      -0.00041138      -0.24823924
Sr       2.36447194       1.18227095      15.39381410       0.06505945      -0.12750872       0.11080606
Ti       1.97047269       1.97057450      11.65888388      -0.06834429       0.10717566       0.10112200
Ti       0.39382079       3.15269575      16.86623667       0.00875975      -0.00566851      -0.09647190
O        0.00000902       1.97050521      11.80747530      -0.08017908      -0.07851558      -0.01713152
O        2.36475793       3.15276354      16.99280342      -0.00227131       0.00869136       0.06312470
O        1.97049401       3.94093312      11.81233432       0.04819199       0.12575780       0.07066317
O        0.39419145       1.18228938      16.98763280      -0.00359080       0.00225203       0.09232292
O        1.97043419       1.97038596       9.84991365      -0.00895978       0.01445397       0.04901345
O        0.39416160       3.15271182      15.05317930       0.04099933      -0.04622689      -0.12520938
10
Lattice="3.940949890606662 0.0 0.0 0.0 3.940949890606662 0.0 0.0 0.0 26.940967945119528" Properties=species:S:1:pos:R:3:forces:R:3 tau=tau63 tau_p=6 tau_q=3 stage=B constraint=xy_fixed_z_free force_label=raw_dft energy=-15499.280804024298 free_energy=-15499.280804024298 stress="0.01031550080676584 -8.263418536795066e-06 -0.0008970399900498642 -8.263418536795066e-06 0.01008045245727478 0.0014213079883287512 -0.0008970399900498642 0.0014213079883287512 -0.0008263418536795065" pbc="T T T"
Sr       0.00003612       0.00009431      10.20980080      -0.00000720      -0.00005374      -0.14300733
Sr       2.36447194       1.18227095      15.42664785       0.05855790      -0.11792288       0.08745325
Ti       1.97047269       1.97057450      11.63157975      -0.06328230       0.09862135       0.08001684
Ti       0.39382079       3.15269575      16.89848924       0.00826224      -0.00541294      -0.10779170
O        0.00000902       1.97050521      11.76876433      -0.07121262      -0.06898758       0.00608889
O        2.36475793       3.15276354      17.02109750      -0.00210676       0.00779301       0.09023055
O        1.97049401       3.94093312      11.79337706       0.04437724       0.11657176      -0.00314137
O        0.39419145       1.18228938      17.02006025      -0.00302619       0.00206382       0.10133309
O        1.97043419       1.97038596       9.81938872      -0.00821879       0.01275679       0.04136828
O        0.39416160       3.15271182      15.08611445       0.03665647      -0.04542985      -0.15255024
10
Lattice="3.940949890606662 0.0 0.0 0.0 3.940949890606662 0.0 0.0 0.0 26.940967945119528" Properties=species:S:1:pos:R:3:forces:R:3 tau=tau63 tau_p=6 tau_q=3 stage=B constraint=xy_fixed_z_free force_label=raw_dft energy=-15499.284015375764 free_energy=-15499.284015375764 stress="0.01061849281978166 -6.427103306396162e-06 -0.0008575592125962879 -6.427103306396162e-06 0.010628592553548854 0.001379990895644776 -0.0008575592125962879 0.001379990895644776 -0.00031860069247420975" pbc="T T T"
Sr       0.00003612       0.00009431      10.17768627      -0.00029928       0.00033244      -0.03543931
Sr       2.36447194       1.18227095      15.45026940       0.05498921      -0.11178488       0.04782818
Ti       1.97047269       1.97057450      11.61680454      -0.05993936       0.09436463       0.02762625
Ti       0.39382079       3.15269575      16.91554852       0.00729885      -0.00573253      -0.07314609
O        0.00000902       1.97050521      11.74704154      -0.06651598      -0.06417551       0.00889705
O        2.36475793       3.15276354      17.04218255      -0.00193861       0.00723457       0.06889271
O        1.97049401       3.94093312      11.77883888       0.04200514       0.11071916      -0.03405966
O        0.39419145       1.18228938      17.04316324      -0.00275082       0.00199903       0.07058064
O        1.97043419       1.97038596       9.80145784      -0.00777476       0.01194740       0.02411875
O        0.39416160       3.15271182      15.10232719       0.03492535      -0.04490457      -0.10529824
10
Lattice="3.940949890606662 0.0 0.0 0.0 3.940949890606662 0.0 0.0 0.0 26.940967945119528" Properties=species:S:1:pos:R:3:forces:R:3 tau=tau63 tau_p=6 tau_q=3 stage=B constraint=xy_fixed_z_free force_label=raw_dft energy=-15499.28534941386 free_energy=-15499.28534941386 stress="0.010906794310954288 -6.427103306396162e-06 -0.000835523429831501 -6.427103306396162e-06 0.010876495109652705 0.001343264591036798 -0.000835523429831501 0.001343264591036798 0.00010375181051753804" pbc="T T T"
Sr       0.00003612       0.00009431      10.15734823      -0.00047874       0.00051962       0.02396680
Sr       2.36447194       1.18227095      15.46673610       0.05288759      -0.10702911       0.01694254
Ti       1.97047269       1.97057450      11.60648758      -0.05776935       0.09176267      -0.00746700
Ti       0.39382079       3.15269575      16.92530428       0.00678360      -0.00582046      -0.02526006
O        0.00000902       1.97050521      11.73540991      -0.06406958      -0.06178361       0.00313315
O        2.36475793       3.15276354      17.05943829      -0.00184322       0.00679543       0.02221253
O        1.97049401       3.94093312      11.76408709       0.04020280       0.10615134      -0.02786176
O        0.39419145       1.18228938      17.06042563      -0.00261378       0.00192704       0.02339318
O        1.97043419       1.97038596       9.78975449      -0.00741120       0.01153294       0.00362860
O        0.39416160       3.15271182      15.11032837       0.03431163      -0.04405585      -0.03268746
10
Lattice="3.940949890606662 0.0 0.0 0.0 3.940949890606662 0.0 0.0 0.0 26.940967945119528" Properties=species:S:1:pos:R:3:forces:R:3 tau=tau63 tau_p=6 tau_q=3 stage=B constraint=xy_fixed_z_free force_label=raw_dft energy=-15499.28556220688 free_energy=-15499.28556220688 stress="0.010976574289709445 -6.427103306396162e-06 -0.0008290963265251049 -6.427103306396162e-06 0.01083425985935353 0.0013258195963480083 -0.0008290963265251049 0.0013258195963480083 0.00020658546341987663" pbc="T T T"
Sr       0.00003612       0.00009431      10.15283617      -0.00048568       0.00051216       0.02096992
Sr       2.36447194       1.18227095      15.47200598       0.05222039      -0.10503702       0.01107940
Ti       1.97047269       1.97057450      11.60184471      -0.05690880       0.09084710      -0.00982290
Ti       0.39382079       3.15269575      16.92865559       0.00664604      -0.00585903      -0.00562712
O        0.00000902       1.97050521      11.73252301      -0.06344274      -0.06122594      -0.00048594
O        2.36475793       3.15276354      17.06627519      -0.00181057       0.00661108      -0.00110995
O        1.97049401       3.94093312      11.75639246       0.03944098       0.10418264      -0.01229553
O        0.39419145       1.18228938      17.06659537      -0.00257393       0.00189593       0.00278168
O        1.97043419       1.97038596       9.78539118      -0.00727648       0.01144964      -0.00190030
O        0.39416160       3.15271182      15.11280031       0.03419079      -0.04337657      -0.00358926
