10
Lattice="3.940949890606662 0.0 0.0 0.0 3.940949890606662 0.0 0.0 0.0 26.940967945119528" Properties=species:S:1:pos:R:3:forces:R:3 tau=tau58 tau_p=5 tau_q=8 stage=B constraint=xy_fixed_z_free force_label=raw_dft energy=-15499.295462252558 free_energy=-15499.295462252558 stress="0.011682637495797824 0.0 -9.181576151994517e-07 0.0 0.013238914653560892 -0.002366092174368987 -9.181576151994517e-07 -0.002366092174368987 -0.0006069021836468376" pbc="T T T"
Sr       0.00003626       0.00009419      10.34231756      -0.00012881      -0.00049879       0.29536422
Sr       1.97037682       3.15274573      15.22285808      -0.00018101       0.25931941       0.26342726
Ti       1.97047258       1.97057465      11.84466007       0.00008228      -0.16946090      -0.15967759
Ti       3.94067560       1.18222073      16.71884069       0.00052553       0.00479845      -0.13964793
O        0.00000906       1.97050529      11.87706532      -0.00005836       0.11345918       0.10789069
O        1.97066293       1.18228851      16.82521875      -0.00054225      -0.02201533       0.10980230
O        1.97049386       3.94093294      12.07443637      -0.00005554      -0.23934862      -0.21604234
O        0.00009655       3.15276425      16.84432566       0.00028102      -0.00481979       0.06668259
O        1.97043435       1.97038588      10.02106866       0.00018538      -0.01948845      -0.14661536
O        0.00006660       1.18223689      14.90452746      -0.00010799       0.07805509      -0.18118410
10
Lattice="3.940949890606662 0.0 0.0 0.0 3.940949890606662 0.0 0.0 0.0 26.940967945119528" Properties=species:S:1:pos:R:3:forces:R:3 tau=tau58 tau_p=5 tau_q=8 stage=B constraint=xy_fixed_z_free force_label=raw_dft energy=-15499.301654475072 free_energy=-15499.301654475072 stress="0.011478806505223545 0.0 -9.181576151994517e-07 0.0 0.01284318872140993 -0.0023302840273762087 -9.181576151994517e-07 -0.0023302840273762087 -0.0005251861558940863" pbc="T T T"
Sr       0.00003612       0.00009431      10.34839657      -0.00012830      -0.00026302       0.23688730
Sr       1.97037695       3.15274591      15.22827997      -0.00017998       0.25458704       0.21745465
Ti       1.97047269       1.97057450      11.84137384       0.00007610      -0.16730014      -0.14677682
Ti       3.94067571       1.18222079      16.71596660       0.00053993       0.00442435      -0.11280895
O        0.00000902       1.97050521      11.87928611      -0.00005888       0.11430302       0.09936594
O        1.97066294       1.18228858      16.82747880      -0.00053890      -0.02143966       0.08828243
O        1.97049401       3.94093312      12.06998997      -0.00004911      -0.23686776      -0.20799633
O        0.00009646       3.15276434      16.84569835       0.00027511      -0.00464418       0.04630840
O        1.97043419       1.97038596      10.01805115       0.00018615      -0.01949205      -0.10030156
O        0.00006661       1.18223686      14.90079861      -0.00012213       0.07669241      -0.12041453
10
Lattice="3.940949890606662 0.0 0.0 0.0 3.940949890606662 0.0 0.0 0.0 26.940967945119528" Properties=species:S:1:pos:R:3:forces:R:3 tau=tau58 tau_p=5 tau_q=8 stage=B constraint=xy_fixed_z_free force_label=raw_dft energy=-15499.307259884092 free_energy=-15499.307259884092 stress="0.011242839998117286 0.0 -9.181576151994517e-07 0.0 0.01237309202242781 -0.0022852943042314354 -9.181576151994517e-07 -0.0022852943042314354 -0.0005389585201220781" pbc="T T T"
Sr       0.00003612       0.00009431      10.35508359      -0.00013113       0.00000206       0.17326484
Sr       1.97037695       3.15274591      15.23440589      -0.00018383       0.24901468       0.16373248
Ti       1.97047269       1.97057450      11.83726849       0.00008330      -0.16482571      -0.11747987
Ti       3.94067571       1.18222079      16.71278380       0.00055819       0.00401889      -0.07353278
O        0.00000902       1.97050521      11.88206503      -0.00005554       0.11519571       0.08935432
O        1.97066294       1.18228858      16.82997045      -0.00053350      -0.02081025       0.06617480
O        1.97049401       3.94093312      12.06418897      -0.00005502      -0.23347134      -0.19464125
O        0.00009646       3.15276434      16.84702012       0.00026534      -0.00444878       0.02707809
O        1.97043419       1.97038596      10.01518469       0.00018486      -0.01946556      -0.06899761
O        0.00006661       1.18223686      14.89734894      -0.00013267       0.07478979      -0.06495326
10
Lattice="3.940949890606662 0.0 0.0 0.0 3.940949890606662 0.0 0.0 0.0 26.940967945119528" Properties=species:S:1:pos:R:3:forces:R:3 tau=tau58 tau_p=5 tau_q=8 stage=B constraint=xy_fixed_z_free force_label=raw_dft energy=-15499.313169516383 free_energy=-15499.313169516383 stress="0.010841605120275126 0.0 -9.181576151994517e-07 0.0 0.011587149103817081 -0.002215514325476277 -9.181576151994517e-07 -0.002215514325476277 -0.0006785184776323948" pbc="T T T"
Sr       0.00003612       0.00009431      10.36482734      -0.00013627       0.00039261       0.08172766
Sr       1.97037695       3.15274591      15.24350148      -0.00018101       0.24055601       0.08787722
Ti       1.97047269       1.97057450      11.83092988       0.00008253      -0.16113901      -0.06911717
Ti       3.94067571       1.18222079      16.70849425       0.00059135       0.00341751      -0.01329312
O        0.00000902       1.97050521      11.88673465      -0.00005425       0.11660159       0.07121879
O        1.97066294       1.18228858      16.83366256      -0.00052965      -0.01988980       0.03618545
O        1.97049401       3.94093312      12.05415845      -0.00005322      -0.22777094      -0.16813626
O        0.00009646       3.15276434      16.84869694       0.00024940      -0.00416364       0.00316580
O        1.97043419       1.97038596      10.01114483       0.00018049      -0.01944962      -0.03345674
O        0.00006661       1.18223686      14.89316956      -0.00014938       0.07144530       0.00382863
10
Lattice="3.940949890606662 0.0 0.0 0.0 3.940949890606662 0.0 0.0 0.0 26.940967945119528" Properties=species:S:1:pos:R:3:forces:R:3 tau=tau58 tau_p=5 tau_q=8 stage=B constraint=xy_fixed_z_free force_label=raw_dft energy=-15499.316766997386 free_energy=-15499.316766997386 stress="0.010342127377606624 0.0 -9.181576151994517e-07 0.0 0.010537694949644107 -0.002122780406341132 -9.181576151994517e-07 -0.002122780406341132 -0.0009300936641970445" pbc="T T T"
Sr       0.00003612       0.00009431      10.37657576      -0.00014167       0.00088112      -0.03318806
Sr       1.97037695       3.15274591      15.25488143      -0.00018203       0.22986511      -0.00261790
Ti       1.97047269       1.97057450      11.82280599       0.00008408      -0.15656450      -0.01171935
Ti       3.94067571       1.18222079      16.70419419       0.00063121       0.00262124       0.05544301
O        0.00000902       1.97050521      11.89348829      -0.00005014       0.11853043       0.04549413
O        1.97066294       1.18228858      16.83831779      -0.00052990      -0.01879554       0.00580735
O        1.97049401       3.94093312      12.03911267      -0.00004937      -0.21971002      -0.12036311
O        0.00009646       3.15276434      16.85036201       0.00022909      -0.00383197      -0.01679367
O        1.97043419       1.97038596      10.00616367       0.00017612      -0.01954064       0.00234048
O        0.00006661       1.18223686      14.88941817      -0.00016764       0.06654503       0.07559712
10
Lattice="3.940949890606662 0.0 0.0 0.0 3.940949890606662 0.0 0.0 0.0 26.940967945119528" Properties=species:S:1:pos:R:3:forces:R:3 tau=tau58 tau_p=5 tau_q=8 stage=B constraint=xy_fixed_z_free force_label=raw_dft energy=-15499.317517215237 free_energy=-15499.317517215237 stress="0.010219094257169896 0.0 -9.181576151994517e-07 0.0 0.010169513745949127 -0.0020906448898091517 -9.181576151994517e-07 -0.0020906448898091517 -0.0010825078283201537" pbc="T T T"
Sr       0.00003612       0.00009431      10.37932435      -0.00014270       0.00101096      -0.06390708
Sr       1.97037695       3.15274591      15.25822144      -0.00018023       0.22630953      -0.02359450
Ti       1.97047269       1.97057450      11.82016530       0.00008536      -0.15529643       0.00157300
Ti       3.94067571       1.18222079      16.70416975       0.00063892       0.00237673       0.06806147
O        0.00000902       1.97050521      11.89649702      -0.00004705       0.11926499       0.03323254
O        1.97066294       1.18228858      16.83986812      -0.00053428      -0.01845666       0.00375638
O        1.97049401       3.94093312      12.03201458      -0.00004834      -0.21628120      -0.09430344
O        0.00009646       3.15276434      16.85053403       0.00022523      -0.00371987      -0.01344970
O        1.97043419       1.97038596      10.00463236       0.00017355      -0.01965017       0.00612668
O        0.00006661       1.18223686      14.88989301      -0.00017072       0.06444239       0.08250439
10
Lattice="3.940949890606662 0.0 0.0 0.0 3.940949890606662 0.0 0.0 0.0 26.940967945119528" Properties=species:S:1:pos:R:3:forces:R:3 tau=tau58 tau_p=5 tau_q=8 stage=B constraint=xy_fixed_z_free force_label=raw_dft energy=-15499.31834961147 free_energy=-15499.31834961147 stress="0.01018236795256192 0.0 -9.181576151994517e-07 0.0 0.009874785151470103 -0.0020621820037379683 -9.181576151994517e-07 -0.0020621820037379683 -0.0012468580414408555" pbc="T T T"
Sr       0.00003612       0.00009431      10.38020227      -0.00014527       0.00106469      -0.08020016
Sr       1.97037695       3.15274591      15.26049489      -0.00017972       0.22336407      -0.03110366
Ti       1.97047269       1.97057450      11.81803631       0.00008665      -0.15444205       0.00589065
Ti       3.94067571       1.18222079      16.70561706       0.00064663       0.00220626       0.06728346
O        0.00000902       1.97050521      11.89966700      -0.00004628       0.11993631       0.01916397
O        1.97066294       1.18228858      16.84128977      -0.00053916      -0.01819544       0.00913770
O        1.97049401       3.94093312      12.02420668      -0.00004448      -0.21278990      -0.06429275
O        0.00009646       3.15276434      16.85046633       0.00022086      -0.00363503      -0.00184322
O        1.97043419       1.97038596      10.00339290       0.00017124      -0.01981986       0.00223403
O        0.00006661       1.18223686      14.89194675      -0.00017021       0.06231146       0.07373024
10
Lattice="3.940949890606662 0.0 0.0 0.0 3.940949890606662 0.0 0.0 0.0 26.940967945119528" Properties=species:S:1:pos:R:3:forces:R:3 tau=tau58 tau_p=5 tau_q=8 stage=B constraint=xy_fixed_z_free force_label=raw_dft energy=-15499.319466502722 free_energy=-15499.319466502722 stress="0.010257656877008274 0.0 -9.181576151994517e-07 0.0 0.009575465768915083 -0.0020282101719755886 -9.181576151994517e-07 -0.0020282101719755886 -0.0014626250810127266" pbc="T T T"
Sr       0.00003612       0.00009431      10.37890658      -0.00014450       0.00104438      -0.08479267
Sr       1.97037695       3.15274591      15.26247159      -0.00017484       0.21994142      -0.02484431
Ti       1.97047269       1.97057450      11.81552621       0.00008459      -0.15372292       0.00242558
Ti       3.94067571       1.18222079      16.70944730       0.00064458       0.00199312       0.05207230
O        0.00000902       1.97050521      11.90420363      -0.00004217       0.12077500      -0.00391245
O        1.97066294       1.18228858      16.84342233      -0.00055022      -0.01790568       0.02348471
O        1.97049401       3.94093312      12.01249483      -0.00004294      -0.20785569      -0.01987180
O        0.00009646       3.15276434      16.85040876       0.00022163      -0.00353347       0.02189680
O        1.97043419       1.97038596      10.00178974       0.00016892      -0.02009780      -0.01169595
O        0.00006661       1.18223686      14.89664899      -0.00016532       0.05936163       0.04523779
10
Lattice="3.940949890606662 0.0 0.0 0.0 3.940949890606662 0.0 0.0 0.0 26.940967945119528" Properties=species:S:1:pos:R:3:forces:R:3 tau=tau58 tau_p=5 tau_q=8 stage=B constraint=xy_fixed_z_free force_label=raw_dft energy=-15499.32025087086 free_energy=-15499.32025087086 stress="0.010481687335116941 0.0 -9.181576151994517e-07 0.0 0.009457023436554352 -0.0020034199163652035 -9.181576151994517e-07 -0.0020034199163652035 -0.0015975942504470458" pbc="T T T"
Sr       0.00003612       0.00009431      10.37438551      -0.00014270       0.00090888      -0.06580739
Sr       1.97037695       3.15274591      15.26306337      -0.00017226       0.21751224      -0.00010747
Ti       1.97047269       1.97057450      11.81357044       0.00008228      -0.15357019      -0.01184944
Ti       3.94067571       1.18222079      16.71505196       0.00063069       0.00188539       0.02303143
O        0.00000902       1.97050521      11.90812545      -0.00003780       0.12131827      -0.02912314
O        1.97066294       1.18228858      16.84600725      -0.00055664      -0.01769870       0.04071548
O        1.97049401       3.94093312      12.00120035      -0.00004011      -0.20338480       0.01989802
O        0.00009646       3.15276434      16.85096302       0.00022780      -0.00345865       0.04808889
O        1.97043419       1.97038596      10.00008644       0.00016738      -0.02036185      -0.03050383
O        0.00006661       1.18223686      14.90286618      -0.00015864       0.05684915       0.00565720
10
Lattice="3.940949890606662 0.0 0.0 0.0 3.940949890606662 0.0 0.0 0.0 26.940967945119528" Properties=species:S:1:pos:R:3:forces:R:3 tau=tau58 tau_p=5 tau_q=8 stage=B constraint=xy_fixed_z_free force_label=raw_dft energy=-15499.320601625599 free_energy=-15499.320601625599 stress="0.01066715517338723 0.0 -9.181576151994517e-07 0.0 0.009569038665608686 -0.0020015836011348046 -9.181576151994517e-07 -0.0020015836011348046 -0.001538832163074281" pbc="T T T"
Sr       0.00003612       0.00009431      10.37041590      -0.00014141       0.00076516      -0.04316497
Sr       1.97037695       3.15274591      15.26267245      -0.00017201       0.21720422       0.01935938
Ti       1.97047269       1.97057450      11.81296149       0.00008305      -0.15368461      -0.02302371
Ti       3.94067571       1.18222079      16.71803543       0.00061475       0.00199106       0.00860754
O        0.00000902       1.97050521      11.90857157      -0.00003574       0.12114781      -0.03933942
O        1.97066294       1.18228858      16.84770256      -0.00055356      -0.01767273       0.04413119
O        1.97049401       3.94093312      11.99805102      -0.00003857      -0.20226252       0.02583984
O        0.00009646       3.15276434      16.85220114       0.00023217      -0.00346379       0.05364632
O        1.97043419       1.97038596       9.99900554       0.00016686      -0.02041250      -0.03740878
O        0.00006661       1.18223686      14.90570287      -0.00015529       0.05638789      -0.00864765
10
Lattice="3.940949890606662 0.0 0.0 0.0 3.940949890606662 0.0 0.0 0.0 26.940967945119528" Properties=species:S:1:pos:R:3:forces:R:3 tau=tau58 tau_p=5 tau_q=8 stage=B constraint=xy_fixed_z_free force_label=raw_dft energy=-15499.32098897965 free_energy=-15499.32098897965 stress="0.010853541169272719 0.0 -9.181576151994517e-07 0.0 0.00972971624826859 -0.002000665443519605 -9.181576151994517e-07 -0.002000665443519605 -0.001414880885022355" pbc="T T T"
Sr       0.00003612       0.00009431      10.36604933      -0.00014218       0.00061552      -0.01988645
Sr       1.97037695       3.15274591      15.26267572      -0.00017381       0.21685610       0.03674338
Ti       1.97047269       1.97057450      11.81199338       0.00008382      -0.15363910      -0.03193027
Ti       3.94067571       1.18222079      16.72084867       0.00061192       0.00214764      -0.00093742
O        0.00000902       1.97050521      11.90809530      -0.00003651       0.12070249      -0.04836682
O        1.97066294       1.18228858      16.85000199      -0.00054970      -0.01762774       0.04186964
O        1.97049401       3.94093312      11.99587414      -0.00003959      -0.20145107       0.02458515
O        0.00009646       3.15276434      16.85430877       0.00023603      -0.00346945       0.05232452
O        1.97043419       1.97038596       9.99737827       0.00016558      -0.02038268      -0.04025113
O        0.00006661       1.18223686      14.90809440      -0.00015529       0.05624802      -0.01415084
10
Lattice="3.940949890606662 0.0 0.0 0.0 3.940949890606662 0.0 0.0 0.0 26.940967945119528" Properties=species:S:1:pos:R:3:forces:R:3 tau=tau58 tau_p=5 tau_q=8 stage=B constraint=xy_fixed_z_free force_label=raw_dft energy=-15499.321586269523 free_energy=-15499.321586269523 stress="0.01110236188299177 0.0 -9.181576151994517e-07 0.0 0.009961091967298852 -0.0019969928130588073 -9.181576151994517e-07 -0.0019969928130588073 -0.001193604899759287" pbc="T T T"
Sr       0.00003612       0.00009431      10.35949947      -0.00014064       0.00041318       0.01006921
Sr       1.97037695       3.15274591      15.26371810      -0.00017612       0.21571813       0.05706589
Ti       1.97047269       1.97057450      11.80969901       0.00008048      -0.15311588      -0.04103069
Ti       3.94067571       1.18222079      16.72498974       0.00059778       0.00232325      -0.00864251
O        0.00000902       1.97050521      11.90661900      -0.00003548       0.11977510      -0.06114983
O        1.97066294       1.18228858      16.85429124      -0.00053916      -0.01747373       0.03333384
O        1.97049401       3.94093312      11.99254464      -0.00004062      -0.20003105       0.01923057
O        0.00009646       3.15276434      16.85841295       0.00024271      -0.00346199       0.04457882
O        1.97043419       1.97038596       9.99409291       0.00016584      -0.02025438      -0.03988912
O        0.00006661       1.18223686      14.91145290      -0.00015504       0.05610738      -0.01356617
10
Lattice="3.940949890606662 0.0 0.0 0.0 3.940949890606662 0.0 0.0 0.0 26.940967945119528" Properties=species:S:1:pos:R:3:forces:R:3 tau=tau58 tau_p=5 tau_q=8 stage=B constraint=xy_fixed_z_free force_label=raw_dft energy=-15499.322463700597 free_energy=-15499.322463700597 stress="0.011427389678772376 0.0 -9.181576151994517e-07 0.0 0.010268674768390667 -0.0019832204488308158 -9.181576151994517e-07 -0.0019832204488308158 -0.0008428686907530966" pbc="T T T"
Sr       0.00003612       0.00009431      10.34967468      -0.00013833       0.00014038       0.04580395
Sr       1.97037695       3.15274591      15.26700265      -0.00017972       0.21285495       0.07880997
Ti       1.97047269       1.97057450      11.80485470       0.00007688      -0.15163492      -0.04930913
Ti       3.94067571       1.18222079      16.73144978       0.00057824       0.00264258      -0.01236341
O        0.00000902       1.97050521      11.90340372      -0.00003291       0.11799872      -0.07872641
O        1.97066294       1.18228858      16.86194635      -0.00052091      -0.01713409       0.01621209
O        1.97049401       3.94093312      11.98661485      -0.00004191      -0.19727715       0.01042531
O        0.00009646       3.15276434      16.86580988       0.00025120      -0.00344296       0.02837829
O        1.97043419       1.97038596       9.98788469       0.00016455      -0.01996050      -0.03499066
O        0.00006661       1.18223686      14.91667865      -0.00015709       0.05581325      -0.00424026
10
Lattice="3.940949890606662 0.0 0.0 0.0 3.940949890606662 0.0 0.0 0.0 26.940967945119528" Properties=species:S:1:pos:R:3:forces:R:3 tau=tau58 tau_p=5 tau_q=8 stage=B constraint=xy_fixed_z_free force_label=raw_dft energy=-15499.32369882531 free_energy=-15499.32369882531 stress="0.011816688507616944 0.0 -9.181576151994517e-07 0.0 0.010638692287316048 -0.001951084932298835 -9.181576151994517e-07 -0.001951084932298835 -0.00033237305670220154" pbc="T T T"
Sr       0.00003612       0.00009431      10.33493750      -0.00013653      -0.00017432       0.08471219
Sr       1.97037695       3.15274591      15.27471245      -0.00018486       0.20681517       0.09859718
Ti       1.97047269       1.97057450      11.79534431       0.00007868      -0.14834417      -0.05424051
Ti       3.94067571       1.18222079      16.74187051       0.00054944       0.00300562      -0.00825915
O        0.00000902       1.97050521      11.89684024      -0.00003265       0.11471774      -0.10132666
O        1.97066294       1.18228858      16.87514604      -0.00049417      -0.01644889      -0.01249839
O        1.97049401       3.94093312      11.97588894      -0.00004011      -0.19200381      -0.00246646
O        0.00009646       3.15276434      16.87862726       0.00026097      -0.00338537       0.00067980
O        1.97043419       1.97038596       9.97663377       0.00016301      -0.01938792      -0.02254420
O        0.00006661       1.18223686      14.92531896      -0.00016378       0.05520570       0.01734620
10
Lattice="3.940949890606662 0.0 0.0 0.0 3.940949890606662 0.0 0.0 0.0 26.940967945119528" Properties=species:S:1:pos:R:3:forces:R:3 tau=tau58 tau_p=5 tau_q=8 stage=B constraint=xy_fixed_z_free force_label=raw_dft energy=-15499.325336678505 free_energy=-15499.325336678505 stress="0.012160079455701538 0.0 -9.181576151994517e-07 0.0 0.010970147186403049 -0.0018914046873108705 -9.181576151994517e-07 -0.0018914046873108705 0.0002745291269446361" pbc="T T T"
Sr       0.00003612       0.00009431      10.31523901      -0.00013473      -0.00033373       0.11243357
Sr       1.97037695       3.15274591      15.28952837      -0.00019078       0.19624125       0.10505425
Ti       1.97047269       1.97057450      11.77905579       0.00008150      -0.14232547      -0.05155833
Ti       3.94067571       1.18222079      16.75745268       0.00051679       0.00296345       0.00791463
O        0.00000902       1.97050521      11.88488651      -0.00003008       0.10933693      -0.12226367
O        1.97066294       1.18228858      16.89516506      -0.00046126      -0.01530989      -0.04954799
O        1.97049401       3.94093312      11.95833467      -0.00003908      -0.18312528      -0.01640801
O        0.00009646       3.15276434      16.89815881       0.00026945      -0.00316606      -0.03583475
O        1.97043419       1.97038596       9.95867667       0.00016198      -0.01840447      -0.00174861
O        0.00006661       1.18223686      14.93882239      -0.00017355       0.05412352       0.05195891
10
Lattice="3.940949890606662 0.0 0.0 0.0 3.940949890606662 0.0 0.0 0.0 26.940967945119528" Properties=species:S:1:pos:R:3:forces:R:3 tau=tau58 tau_p=5 tau_q=8 stage=B constraint=xy_fixed_z_free force_label=raw_dft energy=-15499.327339300302 free_energy=-15499.327339300302 stress="0.012264749423834277 0.0 -9.181576151994517e-07 0.0 0.011091343991609376 -0.0018078523443277204 -9.181576151994517e-07 -0.0018078523443277204 0.0007446258259267553" pbc="T T T"
Sr       0.00003612       0.00009431      10.29411389      -0.00013575      -0.00047334       0.11107654
Sr       1.97037695       3.15274591      15.31116689      -0.00019540       0.18232464       0.08877145
Ti       1.97047269       1.97057450      11.75706586       0.00007636      -0.13391411      -0.03525034
Ti       3.94067571       1.18222079      16.77693157       0.00051294       0.00306193       0.02711665
O        0.00000902       1.97050521      11.86739027      -0.00003034       0.10219955      -0.12890560
O        1.97066294       1.18228858      16.91908601      -0.00043837      -0.01391635      -0.07910642
O        1.97049401       3.94093312      11.93518692      -0.00003908      -0.17160648      -0.02453475
O        0.00009646       3.15276434      16.92163552       0.00027074      -0.00296011      -0.06577139
O        1.97043419       1.97038596       9.93599958       0.00016121      -0.01717497       0.02008237
O        0.00006661       1.18223686      14.95674345      -0.00018255       0.05245976       0.08652122
10
Lattice="3.940949890606662 0.0 0.0 0.0 3.940949890606662 0.0 0.0 0.0 26.940967945119528" Properties=species:S:1:pos:R:3:forces:R:3 tau=tau58 tau_p=5 tau_q=8 stage=B constraint=xy_fixed_z_free force_label=raw_dft energy=-15499.329589545692 free_energy=-15499.329589545692 stress="0.012010419764424027 0.0 -9.181576151994517e-07 0.0 0.010927911936103873 -0.0017142002675773762 -9.181576151994517e-07 -0.0017142002675773762 0.0008979581476650637" pbc="T T T"
Sr       0.00003612       0.00009431      10.27468348      -0.00013935      -0.00046588       0.07380506
Sr       1.97037695       3.15274591      15.33747993      -0.00019618       0.16747292       0.04933664
Ti       1.97047269       1.97057450      11.73203417       0.00007688      -0.12431438      -0.00879806
Ti       3.94067571       1.18222079      16.79842042       0.00052836       0.00282076       0.04132663
O        0.00000902       1.97050521      11.84477232      -0.00003111       0.09407641      -0.10902249
O        1.97066294       1.18228858      16.94307340      -0.00043426      -0.01251099      -0.08658267
O        1.97049401       3.94093312      11.90957747      -0.00003882      -0.15920631      -0.02281211
O        0.00009646       3.15276434      16.94554728       0.00026482      -0.00271303      -0.07516697
O        1.97043419       1.97038596       9.91168020       0.00015735      -0.01575829       0.03568948
O        0.00006661       1.18223686      14.97805129      -0.00018769       0.05059880       0.10222449
10
Lattice="3.940949890606662 0.0 0.0 0.0 3.940949890606662 0.0 0.0 0.0 26.940967945119528" Properties=species:S:1:pos:R:3:forces:R:3 tau=tau58 tau_p=5 tau_q=8 stage=B constraint=xy_fixed_z_free force_label=raw_dft energy=-15499.331446994753 free_energy=-15499.331446994753 stress="0.011421880733081178 0.0 -9.181576151994517e-07 0.0 0.01053310416156811 -0.0016435021312070186 -9.181576151994517e-07 -0.0016435021312070186 0.000607820341262037" pbc="T T T"
Sr       0.00003612       0.00009431      10.26244866      -0.00013884      -0.00039621       0.01396160
Sr       1.97037695       3.15274591      15.36029113      -0.00019052       0.15647194       0.00079858
Ti       1.97047269       1.97057450      11.71192334       0.00007276      -0.11695254       0.00980156
Ti       3.94067571       1.18222079      16.81607911       0.00054225       0.00280687       0.04378229
O        0.00000902       1.97050521      11.82233187      -0.00003085       0.08709046      -0.05807839
O        1.97066294       1.18228858      16.95904475      -0.00045611      -0.01146378      -0.05959971
O        1.97049401       3.94093312      11.89004265      -0.00003651      -0.14978913      -0.01108480
O        0.00009646       3.15276434      16.96216801       0.00025454      -0.00248754      -0.05241014
O        1.97043419       1.97038596       9.89353464       0.00016147      -0.01465220       0.03414374
O        0.00006661       1.18223686      14.99745580      -0.00017792       0.04937212       0.07868553
10
Lattice="3.940949890606662 0.0 0.0 0.0 3.940949890606662 0.0 0.0 0.0 26.940967945119528" Properties=species:S:1:pos:R:3:forces:R:3 tau=tau58 tau_p=5 tau_q=8 stage=B constraint=xy_fixed_z_free force_label=raw_dft energy=-15499.332142789839 free_energy=-15499.332142789839 stress="0.011023400328084618 0.0 -9.181576151994517e-07 0.0 0.01029897396969225 -0.0016168755603662344 -9.181576151994517e-07 -0.0016168755603662344 0.00025800228987104596" pbc="T T T"
Sr       0.00003612       0.00009431      10.25712451      -0.00013755      -0.00033913      -0.01548987
Sr       1.97037695       3.15274591      15.37039524      -0.00018203       0.15220314      -0.01908324
Ti       1.97047269       1.97057450      11.70337477       0.00007251      -0.11393227       0.01317125
Ti       3.94067571       1.18222079      16.82541470       0.00054456       0.00294700       0.02760208
O        0.00000902       1.97050521      11.80960794      -0.00003188       0.08355520      -0.01541171
O        1.97066294       1.18228858      16.96419466      -0.00047694      -0.01109868      -0.02300932
O        1.97049401       3.94093312      11.88201625      -0.00003445      -0.14587771      -0.00150718
O        0.00009646       3.15276434      16.96809723       0.00024888      -0.00239961      -0.01975019
O        1.97043419       1.97038596       9.88650406       0.00016481      -0.01417243       0.01700579
O        0.00006661       1.18223686      15.00859061      -0.00016789       0.04911450       0.03647213
10
Lattice="3.940949890606662 0.0 0.0 0.0 3.940949890606662 0.0 0.0 0.0 26.940967945119528" Properties=species:S:1:pos:R:3:forces:R:3 tau=tau58 tau_p=5 tau_q=8 stage=B constraint=xy_fixed_z_free force_label=raw_dft energy=-15499.3322983029 free_energy=-15499.3322983029 stress="0.010954538506944658 0.0 -9.181576151994517e-07 0.0 0.01029805581207705 -0.0016168755603662344 -9.181576151994517e-07 -0.0016168755603662344 0.00012670575089752432" pbc="T T T"
Sr       0.00003612       0.00009431      10.25499217      -0.00013961      -0.00035841      -0.01248065
Sr       1.97037695       3.15274591      15.37153864      -0.00018178       0.15186118      -0.01404414
Ti       1.97047269       1.97057450      11.70227218       0.00007739      -0.11350906       0.00685379
Ti       3.94067571       1.18222079      16.82848731       0.00055921       0.00304599       0.01089376
O        0.00000902       1.97050521      11.80603925      -0.00003471       0.08264991      -0.00015504
O        1.97066294       1.18228858      16.96439733      -0.00049082      -0.01108943      -0.00406620
O        1.97049401       3.94093312      11.88086229      -0.00003677      -0.14534652       0.00112409
O        0.00009646       3.15276434      16.96869574       0.00024683      -0.00240064      -0.00251814
O        1.97043419       1.97038596       9.88570476       0.00016352      -0.01409170       0.00462104
O        0.00006661       1.18223686      15.01233029      -0.00016327       0.04923894       0.00977122
