10
Lattice="3.940949890606662 0.0 0.0 0.0 3.940949890606662 0.0 0.0 0.0 26.940967945119528" Properties=species:S:1:pos:R:3:forces:R:3 tau=tau12 tau_p=1 tau_q=2 stage=B constraint=xy_fixed_z_free force_label=raw_dft energy=-15499.601824066833 free_energy=-15499.601824066833 stress="0.008862975459520308 0.000892449201973867 0.0055722985666454726 0.000892449201973867 0.010954538506944658 0.013117717848354566 0.0055722985666454726 0.013117717848354566 -0.006725504531335984" pbc="T T T"
Sr       0.00003626       0.00009419      10.75260867      -0.00208645       0.00040778       0.19536939
Sr       0.39399686       0.78817579      14.64522241      -0.45212052      -0.70791032       1.63946342
Ti       1.97047258       1.97057465      12.38212169       0.55353537       0.59804014      -0.63452641
Ti       2.36429564       2.75860069      16.28444791      -0.03955514      -0.12194794      -0.01651625
O        0.00000906       1.97050529      12.45001441       0.67258825      -0.27665430      -0.41084994
O        0.39428297       2.75866847      16.39256827      -0.00665864      -0.03947955      -0.04928805
O        1.97049386       3.94093294      12.44909065      -0.40853775       1.64453903      -1.02326846
O        2.36466649       0.78819431      16.37955485       0.00672112      -0.00449969      -0.04540234
O        1.97043435       1.97038588      10.49176941       0.12805456       0.27096265       0.17366773
O        2.36463654       2.75861684      14.44792112      -0.45194106      -1.36345806       0.17135091
10
Lattice="3.940949890606662 0.0 0.0 0.0 3.940949890606662 0.0 0.0 0.0 26.940967945119528" Properties=species:S:1:pos:R:3:forces:R:3 tau=tau12 tau_p=1 tau_q=2 stage=B constraint=xy_fixed_z_free force_label=raw_dft energy=-15499.682547317356 free_energy=-15499.682547317356 stress="0.0080393880786864 0.0008419505331378973 0.005313378119159227 0.0008419505331378973 0.009956501179222855 0.012270258369525472 0.005313378119159227 0.012270258369525472 -0.007076240740342175" pbc="T T T"
Sr       0.00003612       0.00009431      10.75662975      -0.00179643       0.00068340       0.17568168
Sr       0.39399699       0.78817596      14.67896567      -0.41046299      -0.61311837       1.26712937
Ti       1.97047269       1.97057450      12.36906232       0.50404369       0.55770184      -0.46733271
Ti       2.36429575       2.75860075      16.28410798      -0.03903449      -0.11741842      -0.04910987
O        0.00000902       1.97050521      12.44155847       0.66173125      -0.31348304      -0.28931081
O        0.39428297       2.75866855      16.39155390      -0.00550936      -0.03735247       0.01537777
O        1.97049401       3.94093312      12.42803001      -0.39970138       1.54330750      -0.86027158
O        2.36466641       0.78819439      16.37862035       0.00728574      -0.00210162       0.02140932
O        1.97043419       1.97038596      10.49534377       0.12549555       0.26527203      -0.03000297
O        2.36463656       2.75861683      14.45144774      -0.44205131      -1.28349084       0.21643006
10
Lattice="3.940949890606662 0.0 0.0 0.0 3.940949890606662 0.0 0.0 0.0 26.940967945119528" Properties=species:S:1:pos:R:3:forces:R:3 tau=tau12 tau_p=1 tau_q=2 stage=B constraint=xy_fixed_z_free force_label=raw_dft energy=-15499.751300824342 free_energy=-15499.751300824342 stress="0.007057877588038186 0.0007914518643019274 0.005048030568366585 0.0007914518643019274 0.008768405225154765 0.011375054694706007 0.005048030568366585 0.011375054694706007 -0.007508692977101117" pbc="T T T"
Sr       0.00003612       0.00009431      10.76173246      -0.00182240       0.00038232       0.11480644
Sr       0.39399699       0.78817596      14.71608295      -0.37041060      -0.52321924       0.89001667
Ti       1.97047269       1.97057450      12.35533238       0.45681947       0.52262814      -0.35605305
Ti       2.36429575       2.75860075      16.28273340      -0.03829067      -0.11111022       0.00441150
O        0.00000902       1.97050521      12.43303417       0.64652240      -0.34336466      -0.16557724
O        0.39428297       2.75866855      16.39191025      -0.00407571      -0.03523723       0.07511324
O        1.97049401       3.94093312      12.40295270      -0.38425651       1.42810691      -0.66143454
O        2.36466641       0.78819439      16.37914805       0.00792003       0.00054045       0.08306900
O        1.97043419       1.97038596      10.49475391       0.12110513       0.25671102      -0.16587035
O        2.36463656       2.75861683      14.45763969      -0.43351139      -1.19543673       0.18151834
10
Lattice="3.940949890606662 0.0 0.0 0.0 3.940949890606662 0.0 0.0 0.0 26.940967945119528" Properties=species:S:1:pos:R:3:forces:R:3 tau=tau12 tau_p=1 tau_q=2 stage=B constraint=xy_fixed_z_free force_label=raw_dft energy=-15499.818033886077 free_energy=-15499.818033886077 stress="0.005458447022360741 0.0007326897769291624 0.004689949098438799 0.0007326897769291624 0.006838437918005516 0.01011626060426756 0.004689949098438799 0.01011626060426756 -0.008078868856139976" pbc="T T T"
Sr       0.00003612       0.00009431      10.76898242      -0.00217541      -0.00053145      -0.01810442
Sr       0.39399699       0.78817596      14.77175886      -0.31918035      -0.40922963       0.35789370
Ti       1.97047269       1.97057450      12.33353648       0.39511068       0.47858900      -0.23486230
Ti       2.36429575       2.75860075      16.28235965      -0.03703726      -0.10130018       0.09384964
O        0.00000902       1.97050521      12.42176125       0.62185498      -0.37365559      -0.01714283
O        0.39428297       2.75866855      16.39502157      -0.00187665      -0.03214239       0.16691910
O        1.97049401       3.94093312      12.36308642      -0.35502718       1.26118832      -0.36276749
O        2.36466641       0.78819439      16.38266554       0.00875358       0.00404923       0.17721071
O        1.97043419       1.97038596      10.48815009       0.11274107       0.24161736      -0.28913521
O        2.36463656       2.75861683      14.46799767      -0.42316399      -1.06858493       0.12613909
10
Lattice="3.940949890606662 0.0 0.0 0.0 3.940949890606662 0.0 0.0 0.0 26.940967945119528" Properties=species:S:1:pos:R:3:forces:R:3 tau=tau12 tau_p=1 tau_q=2 stage=B constraint=xy_fixed_z_free force_label=raw_dft energy=-15499.847518372893 free_energy=-15499.847518372893 stress="0.003926041962592855 0.0006904545266299876 0.004375021036425388 0.0006904545266299876 0.004963560067768236 0.00895754569388585 0.004375021036425388 0.00895754569388585 -0.00828912695002065" pbc="T T T"
Sr       0.00003612       0.00009431      10.77348946      -0.00277833      -0.00175606      -0.18321835
Sr       0.39399699       0.78817596      14.82648379      -0.27667333      -0.31599295      -0.12059682
Ti       1.97047269       1.97057450      12.30846864       0.34318339       0.44338674      -0.14144616
Ti       2.36429575       2.75860075      16.28564553      -0.03593194      -0.09207583       0.17613137
O        0.00000902       1.97050521      12.41244973       0.59597040      -0.39005563       0.07359988
O        0.39428297       2.75866855      16.40318934       0.00023654      -0.02912083       0.24998270
O        1.97049401       3.94093312      12.32041319      -0.32051655       1.10284231      -0.07725856
O        2.36466641       0.78819439      16.39149545       0.00930559       0.00685096       0.26118731
O        1.97043419       1.97038596      10.47370746       0.10226563       0.22377416      -0.32281589
O        2.36463656       2.75861683      14.47997737      -0.41506141      -0.94785286       0.08443451
10
Lattice="3.940949890606662 0.0 0.0 0.0 3.940949890606662 0.0 0.0 0.0 26.940967945119528" Properties=species:S:1:pos:R:3:forces:R:3 tau=tau12 tau_p=1 tau_q=2 stage=B constraint=xy_fixed_z_free force_label=raw_dft energy=-15499.85652411644 free_energy=-15499.85652411644 stress="0.0038755432937568855 0.0006803547928627937 0.004298813954363833 0.0006803547928627937 0.004787273805649941 0.00863802684379644 0.004298813954363833 0.00863802684379644 -0.007746495799437774" pbc="T T T"
Sr       0.00003612       0.00009431      10.77049155      -0.00293826      -0.00213453      -0.22721533
Sr       0.39399699       0.78817596      14.84015389      -0.26549520      -0.29296024      -0.20367611
Ti       1.97047269       1.97057450      12.29766923       0.33047752       0.43788792      -0.11436215
Ti       2.36429575       2.75860075      16.29066519      -0.03623790      -0.09029174       0.18787719
O        0.00000902       1.97050521      12.41108235       0.58887184      -0.39176413       0.05630022
O        0.39428297       2.75866855      16.41110458       0.00094848      -0.02820757       0.24657034
O        1.97049401       3.94093312      12.30615953      -0.30812820       1.05519076      -0.01446014
O        2.36466641       0.78819439      16.39984799       0.00946140       0.00741558       0.25628268
O        1.97043419       1.97038596      10.46287274       0.09766798       0.21599246      -0.26695790
O        2.36463656       2.75861683      14.48527292      -0.41462792      -0.91112826       0.07964095
10
Lattice="3.940949890606662 0.0 0.0 0.0 3.940949890606662 0.0 0.0 0.0 26.940967945119528" Properties=species:S:1:pos:R:3:forces:R:3 tau=tau12 tau_p=1 tau_q=2 stage=B constraint=xy_fixed_z_free force_label=raw_dft energy=-15499.869095231561 free_energy=-15499.869095231561 stress="0.004253824231219059 0.0006684187438652008 0.0042327066060694725 0.0006684187438652008 0.005011304263758607 0.008333198515550224 0.0042327066060694725 0.008333198515550224 -0.006686023753882407" pbc="T T T"
Sr       0.00003612       0.00009431      10.76282081      -0.00302645      -0.00234665      -0.25433687
Sr       0.39399699       0.78817596      14.85120198      -0.25517350      -0.27247600      -0.23151858
Ti       1.97047269       1.97057450      12.28392491       0.31982492       0.43585598      -0.07479211
Ti       2.36429575       2.75860075      16.29958221      -0.03717224      -0.08963611       0.18618129
O        0.00000902       1.97050521      12.41021849       0.58143570      -0.39152759       0.00538543
O        0.39428297       2.75866855      16.42395148       0.00170618      -0.02717682       0.21694968
O        1.97049401       3.94093312      12.29072580      -0.29437306       1.00600376       0.02590772
O        2.36466641       0.78819439      16.41332461       0.00955833       0.00777399       0.22377108
O        1.97043419       1.97038596      10.44719371       0.09197864       0.20633231      -0.17900843
O        2.36463656       2.75861683      14.49237597      -0.41475879      -0.87280288       0.08146078
10
Lattice="3.940949890606662 0.0 0.0 0.0 3.940949890606662 0.0 0.0 0.0 26.940967945119528" Properties=species:S:1:pos:R:3:forces:R:3 tau=tau12 tau_p=1 tau_q=2 stage=B constraint=xy_fixed_z_free force_label=raw_dft energy=-15499.885503832089 free_energy=-15499.885503832089 stress="0.005182081580185706 0.0006491374339460123 0.004161090312083915 0.0006491374339460123 0.005723794573153382 0.007980625991313633 0.004161090312083915 0.007980625991313633 -0.00490663429562587" pbc="T T T"
Sr       0.00003612       0.00009431      10.74738627      -0.00294623      -0.00247854      -0.25869669
Sr       0.39399699       0.78817596      14.86156423      -0.24411519      -0.25078797      -0.20362854
Ti       1.97047269       1.97057450      12.26444878       0.30915844       0.43649901      -0.01784063
Ti       2.36429575       2.75860075      16.31515427      -0.03890490      -0.08977907       0.16689853
O        0.00000902       1.97050521      12.40849675       0.57055582      -0.38886933      -0.08230435
O        0.39428297       2.75866855      16.44499320       0.00257445      -0.02579048       0.15464928
O        1.97049401       3.94093312      12.27079899      -0.27665533       0.94531107       0.05138581
O        2.36466641       0.78819439      16.43530939       0.00957813       0.00794908       0.15672288
O        1.97043419       1.97038596      10.42367517       0.08442037       0.19312867      -0.05483417
O        2.36463656       2.75861683      14.50349291      -0.41366530      -0.82518270       0.08764788
10
Lattice="3.940949890606662 0.0 0.0 0.0 3.940949890606662 0.0 0.0 0.0 26.940967945119528" Properties=species:S:1:pos:R:3:forces:R:3 tau=tau12 tau_p=1 tau_q=2 stage=B constraint=xy_fixed_z_free force_label=raw_dft energy=-15499.9014697034 free_energy=-15499.9014697034 stress="0.006952289462290248 0.0006105748141076354 0.004071110865794369 0.0006105748141076354 0.007177238078014114 0.007547255596939494 0.004071110865794369 0.007547255596939494 -0.002123698563956332" pbc="T T T"
Sr       0.00003612       0.00009431      10.71827083      -0.00260761      -0.00236130      -0.21516045
Sr       0.39399699       0.78817596      14.87129733      -0.23215082      -0.22714668      -0.09555145
Ti       1.97047269       1.97057450      12.23660712       0.29800551       0.43872970       0.04864604
Ti       2.36429575       2.75860075      16.34195475      -0.04175034      -0.09059076       0.11981984
O        0.00000902       1.97050521      12.40300424       0.55152965      -0.38181988      -0.20498711
O        0.39428297       2.75866855      16.47890019       0.00347999      -0.02367960       0.04966806
O        1.97049401       3.94093312      12.24369433      -0.25333722       0.86672505       0.05831802
O        2.36466641       0.78819439      16.47058720       0.00948711       0.00790280       0.04465492
O        1.97043419       1.97038596      10.38906313       0.07463295       0.17510498       0.09971021
O        2.36463656       2.75861683      14.52194087      -0.40728948      -0.76286431       0.09488193
10
Lattice="3.940949890606662 0.0 0.0 0.0 3.940949890606662 0.0 0.0 0.0 26.940967945119528" Properties=species:S:1:pos:R:3:forces:R:3 tau=tau12 tau_p=1 tau_q=2 stage=B constraint=xy_fixed_z_free force_label=raw_dft energy=-15499.906932660824 free_energy=-15499.906932660824 stress="0.008074278068063979 0.0005784392975756546 0.004027039300264795 0.0005784392975756546 0.008175275405735918 0.007361787758669203 0.004027039300264795 0.007361787758669203 -0.0006518919067916107" pbc="T T T"
Sr       0.00003612       0.00009431      10.69744978      -0.00218801      -0.00197126      -0.14766797
Sr       0.39399699       0.78817596      14.87375519      -0.22811599      -0.21888778      -0.00644087
Ti       1.97047269       1.97057450      12.22307052       0.29496775       0.44121519       0.06795194
Ti       2.36429575       2.75860075      16.35934492      -0.04328272      -0.09118366       0.07709710
O        0.00000902       1.97050521      12.39519978       0.53660311      -0.37542734      -0.24087046
O        0.39428297       2.75866855      16.49842508       0.00374790      -0.02230741      -0.00524299
O        1.97049401       3.94093312      12.23082677      -0.24249411       0.82902342       0.05071887
O        2.36466641       0.78819439      16.49072632       0.00939764       0.00762846      -0.01318745
O        1.97043419       1.97038596      10.37233137       0.07047831       0.16619714       0.13545960
O        2.36463656       2.75861683      14.53419023      -0.39911363      -0.73428649       0.08218248
10
Lattice="3.940949890606662 0.0 0.0 0.0 3.940949890606662 0.0 0.0 0.0 26.940967945119528" Properties=species:S:1:pos:R:3:forces:R:3 tau=tau12 tau_p=1 tau_q=2 stage=B constraint=xy_fixed_z_free force_label=raw_dft energy=-15499.910627286468 free_energy=-15499.910627286468 stress="0.008782177589382755 0.0005463037810436738 0.003998576414193612 0.0005463037810436738 0.008896947291282686 0.007278235415686054 0.003998576414193612 0.007278235415686054 0.00014506890320151335" pbc="T T T"
Sr       0.00003612       0.00009431      10.68054481      -0.00176249      -0.00133569      -0.06782596
Sr       0.39399699       0.78817596      14.87439183      -0.22716493      -0.21639561       0.05650668
Ti       1.97047269       1.97057450      12.21677757       0.29551488       0.44400689       0.05002801
Ti       2.36429575       2.75860075      16.37228335      -0.04369127      -0.09189611       0.03289906
O        0.00000902       1.97050521      12.38406532       0.52170126      -0.36900781      -0.21510080
O        0.39428297       2.75866855      16.51057625       0.00373196      -0.02103291      -0.02774580
O        1.97049401       3.94093312      12.22466825      -0.23716833       0.80815377       0.04733889
O        2.36466641       0.78819439      16.50304555       0.00928014       0.00734513      -0.03616899
O        1.97043419       1.97038596      10.36498051       0.06886057       0.16111895       0.10436288
O        2.36463656       2.75861683      14.54398652      -0.38930179      -0.72095687       0.05570604
10
Lattice="3.940949890606662 0.0 0.0 0.0 3.940949890606662 0.0 0.0 0.0 26.940967945119528" Properties=species:S:1:pos:R:3:forces:R:3 tau=tau12 tau_p=1 tau_q=2 stage=B constraint=xy_fixed_z_free force_label=raw_dft energy=-15499.913563666902 free_energy=-15499.913563666902 stress="0.009128323010312947 0.0005123319492812941 0.0039664408976616316 0.0005123319492812941 0.009382652669723197 0.0072350820077716795 0.0039664408976616316 0.0072350820077716795 0.00047193301421251816" pbc="T T T"
Sr       0.00003612       0.00009431      10.66606610      -0.00128221      -0.00061141       0.01887755
Sr       0.39399699       0.78817596      14.87603281      -0.22693328      -0.21569036       0.08552260
Ti       1.97047269       1.97057450      12.21460939       0.29767410       0.44582209       0.00514889
Ti       2.36429575       2.75860075      16.38254527      -0.04352569      -0.09232189      -0.01200577
O        0.00000902       1.97050521      12.36846793       0.50432548      -0.36186349      -0.13587920
O        0.39428297       2.75866855      16.51808947       0.00358052      -0.01966508      -0.02500578
O        1.97049401       3.94093312      12.22264891      -0.23486976       0.79544301       0.05240628
O        2.36466641       0.78819439      16.51036046       0.00907291       0.00709727      -0.03183437
O        1.97043419       1.97038596      10.36359723       0.06877881       0.15777420       0.02547680
O        2.36463656       2.75861683      14.55290238      -0.37682114      -0.71598435       0.01729247
10
Lattice="3.940949890606662 0.0 0.0 0.0 3.940949890606662 0.0 0.0 0.0 26.940967945119528" Properties=species:S:1:pos:R:3:forces:R:3 tau=tau12 tau_p=1 tau_q=2 stage=B constraint=xy_fixed_z_free force_label=raw_dft energy=-15499.91476287259 free_energy=-15499.91476287259 stress="0.008967645427653045 0.0004985595850533022 0.003938896169205648 0.0004985595850533022 0.009369798463110405 0.007225900431619685 0.003938896169205648 0.007225900431619685 0.00028095623025103223" pbc="T T T"
Sr       0.00003612       0.00009431      10.66276000      -0.00111689      -0.00033630       0.04842596
Sr       0.39399699       0.78817596      14.87882630      -0.22629384      -0.21507792       0.06351422
Ti       1.97047269       1.97057450      12.21570932       0.29859172       0.44430925      -0.02764784
Ti       2.36429575       2.75860075      16.38444868      -0.04283226      -0.09220156      -0.02266865
O        0.00000902       1.97050521      12.35856214       0.49461571      -0.35806648      -0.06683120
O        0.39428297       2.75866855      16.51803492       0.00347150      -0.01893412      -0.00691087
O        1.97049401       3.94093312      12.22486299      -0.23579639       0.79509797       0.05792747
O        2.36466641       0.78819439      16.50993881       0.00887082       0.00714510      -0.01134499
O        1.97043419       1.97038596      10.36632399       0.06958151       0.15699773      -0.03065501
O        2.36463656       2.75861683      14.55585281      -0.36909189      -0.71893367      -0.00380909
10
Lattice="3.940949890606662 0.0 0.0 0.0 3.940949890606662 0.0 0.0 0.0 26.940967945119528" Properties=species:S:1:pos:R:3:forces:R:3 tau=tau12 tau_p=1 tau_q=2 stage=B constraint=xy_fixed_z_free force_label=raw_dft energy=-15499.915357849499 free_energy=-15499.915357849499 stress="0.008684852882171613 0.000493968796977305 0.003906760652673666 0.000493968796977305 0.009199021146683306 0.007204782806470097 0.003906760652673666 0.007204782806470097 3.764446222317752e-05" pbc="T T T"
Sr       0.00003612       0.00009431      10.66366806      -0.00112383      -0.00032087       0.04556226
Sr       0.39399699       0.78817596      14.88258641      -0.22444934      -0.21286883       0.02547269
Ti       1.97047269       1.97057450      12.21590508       0.29760545       0.44024614      -0.04055221
Ti       2.36429575       2.75860075      16.38378998      -0.04212135      -0.09184443      -0.01622623
O        0.00000902       1.97050521      12.35210372       0.48826432      -0.35553780      -0.02136690
O        0.39428297       2.75866855      16.51674963       0.00342574      -0.01846823       0.00821262
O        1.97049401       3.94093312      12.22767464      -0.23698115       0.79701833       0.05605879
O        2.36466641       0.78819439      16.50832286       0.00866359       0.00734333       0.00605958
O        1.97043419       1.97038596      10.36783216       0.07007516       0.15623488      -0.05254178
O        2.36463656       2.75861683      14.55668742      -0.36335858      -0.72180250      -0.01067882
10
Lattice="3.940949890606662 0.0 0.0 0.0 3.940949890606662 0.0 0.0 0.0 26.940967945119528" Properties=species:S:1:pos:R:3:forces:R:3 tau=tau12 tau_p=1 tau_q=2 stage=B constraint=xy_fixed_z_free force_label=raw_dft energy=-15499.915729965172 free_energy=-15499.915729965172 stress="0.008478267418751738 0.0004930506393621056 0.003870034348065689 0.0004930506393621056 0.009069560922940183 0.0071680565018621195 0.003870034348065689 0.0071680565018621195 -5.7843929757565454e-05" pbc="T T T"
Sr       0.00003612       0.00009431      10.66509758      -0.00120739      -0.00041292       0.02992970
Sr       0.39399699       0.78817596      14.88634434      -0.22174119      -0.20957730      -0.00596959
Ti       1.97047269       1.97057450      12.21417341       0.29541487       0.43503580      -0.03634743
Ti       2.36429575       2.75860075      16.38337401      -0.04160045      -0.09161380      -0.00465704
O        0.00000902       1.97050521      12.34744465       0.48320901      -0.35319013       0.00090940
O        0.39428297       2.75866855      16.51676320       0.00342959      -0.01806251       0.01394284
O        1.97049401       3.94093312      12.23000003      -0.23756402       0.79804857       0.04378794
O        2.36466641       0.78819439      16.50810728       0.00846381       0.00758733       0.01359497
O        1.97043419       1.97038596      10.36672554       0.06998440       0.15473593      -0.04649609
O        2.36463656       2.75861683      14.55728993      -0.35838890      -0.72255069      -0.00869470
10
Lattice="3.940949890606662 0.0 0.0 0.0 3.940949890606662 0.0 0.0 0.0 26.940967945119528" Properties=species:S:1:pos:R:3:forces:R:3 tau=tau12 tau_p=1 tau_q=2 stage=B constraint=xy_fixed_z_free force_label=raw_dft energy=-15499.915992827138 free_energy=-15499.915992827138 stress="0.008385533499616592 0.0004921324817469061 0.0038305535706121127 0.0004921324817469061 0.009035589091177805 0.007122148621102147 0.0038305535706121127 0.007122148621102147 9.181576151994517e-06" pbc="T T T"
Sr       0.00003612       0.00009431      10.66571017      -0.00131332      -0.00055227       0.01218703
Sr       0.39399699       0.78817596      14.88953970      -0.21860470      -0.20591117      -0.02321886
Ti       1.97047269       1.97057450      12.21073185       0.29274349       0.42951281      -0.01996282
Ti       2.36429575       2.75860075      16.38412686      -0.04128035      -0.09158192       0.00522705
O        0.00000902       1.97050521      12.34335389       0.47830695      -0.35049818       0.00721503
O        0.39428297       2.75866855      16.51853619       0.00345839      -0.01765577       0.01054332
O        1.97049401       3.94093312      12.23190075      -0.23758690       0.79788042       0.02148105
O        2.36466641       0.78819439      16.50974357       0.00826430       0.00780561       0.01151289
O        1.97043419       1.97038596      10.36330780       0.06941747       0.15245459      -0.02252338
O        2.36463656       2.75861683      14.55836918      -0.35340533      -0.72145412      -0.00246132
