Sr Ti O
 1.0000000000000000
     3.9409498906066620    0.0000000000000000    0.0000000000000000
     0.0000000000000000    3.9409498906066620    0.0000000000000000
     0.0000000000000000    0.0000000000000000   26.9409679451195281
 Sr  Ti  O
   2   2   6
Cartesian
  0.0000361212000000  0.0000943054000000 10.2857145471999996
  1.1821869691000000  2.7586509180999998 15.3418872669000006
  1.9704726885999999  1.9705745045000000 11.7343796813000001
  3.1524857306000000  0.7881257966000000 16.7968917359000010
  0.0000090208000000  1.9705052130000000 11.8741620659000002
  1.1824729530000000  0.7881935919000000 16.9311555013000010
  1.9704940097000001  3.9409331233999998 11.8744139847000003
  3.1528563944000001  2.7586693477000002 16.9378023209999995
  1.9704341934000000  1.9703859550000000  9.9173114609000006
  3.1528265422000001  0.7881418679000000 14.9816013979000004
