10
Lattice="3.940949890606662 0.0 0.0 0.0 3.940949890606662 0.0 0.0 0.0 26.940967945119528" Properties=species:S:1:pos:R:3:forces:R:3 tau=tau37 tau_p=3 tau_q=7 stage=B constraint=xy_fixed_z_free force_label=raw_dft energy=-15497.667378624783 free_energy=-15497.667378624783 stress="0.013621786379099065 -0.0017821439311021356 0.008985090422341835 -0.0017821439311021356 0.01328023174624487 -0.008980499634265837 0.008985090422341835 -0.008980499634265837 -0.017573536754917504" pbc="T T T"
Sr       0.00003626       0.00009419      10.75260867       0.00126550      -0.00136243       0.52204681
Sr       1.18218684       2.75865074      14.64522241      -1.26544401       1.26224530       4.16632072
Ti       1.97047258       1.97057465      12.38212169       1.23604936      -1.23525129      -3.76063227
Ti       3.15248562       0.78812574      16.28444791      -0.06099968       0.06007665      -0.40910211
O        0.00000906       1.97050529      12.45001441       0.88782943       0.67648835      -0.88080286
O        1.18247295       0.78819352      16.39256827       0.01878834      -0.07375981      -0.13399587
O        1.97049386       3.94093294      12.44909065      -0.67651046      -0.88483461      -0.87364363
O        3.15285647       2.75866926      16.37955485       0.07674486      -0.01696568      -0.09604047
O        1.97043435       1.97038588      10.49176941       0.15284797      -0.15222962       0.39068170
O        3.15282651       0.78814190      14.44792112      -0.37057156       0.36559313       1.07516798
10
Lattice="3.940949890606662 0.0 0.0 0.0 3.940949890606662 0.0 0.0 0.0 26.940967945119528" Properties=species:S:1:pos:R:3:forces:R:3 tau=tau37 tau_p=3 tau_q=7 stage=B constraint=xy_fixed_z_free force_label=raw_dft energy=-15498.212612715128 free_energy=-15498.212612715128 stress="0.010401807622594588 -0.0016884918543517914 0.007091849419800565 -0.0016884918543517914 0.010104324555269967 -0.007085422316494169 0.007091849419800565 -0.007085422316494169 -0.020737507896894818" pbc="T T T"
Sr       0.00003612       0.00009431      10.76335334       0.00129635      -0.00143802       0.61166904
Sr       1.18218697       2.75865092      14.73097274      -0.91770359       0.91494686       2.71779822
Ti       1.97047269       1.97057450      12.30472169       0.84765106      -0.84695326      -1.17252794
Ti       3.15248573       0.78812580      16.27602789      -0.05103537       0.05078186       0.04540774
O        0.00000902       1.97050521      12.43188603       0.83342489       0.63275157      -0.96903567
O        1.18247295       0.78819359      16.38981047       0.01933958      -0.06469487      -0.00856383
O        1.97049401       3.94093312      12.43110955      -0.63259371      -0.83082010      -0.96326200
O        3.15285639       2.75866935      16.37757813       0.06697055      -0.01844252       0.03509787
O        1.97043419       1.97038596      10.49981029       0.13977494      -0.13932551      -0.93434609
O        3.15282654       0.78814187      14.47004985      -0.30712470       0.30319400       0.63776291
10
Lattice="3.940949890606662 0.0 0.0 0.0 3.940949890606662 0.0 0.0 0.0 26.940967945119528" Properties=species:S:1:pos:R:3:forces:R:3 tau=tau37 tau_p=3 tau_q=7 stage=B constraint=xy_fixed_z_free force_label=raw_dft energy=-15498.536723154526 free_energy=-15498.536723154526 stress="0.006662151655887221 -0.0014745611300103192 0.005865190845894098 -0.0014745611300103192 0.006436284882548156 -0.005857845584972502 0.005865190845894098 -0.005857845584972502 -0.021672192349167858" pbc="T T T"
Sr       0.00003612       0.00009431      10.78259387      -0.00324576       0.00306373       0.33926503
Sr       1.18218697       2.75865092      14.82529778      -0.69895414       0.69689700       1.42178740
Ti       1.97047269       1.97057450      12.25463586       0.62844318      -0.62784565      -0.07976308
Ti       3.15248573       0.78812580      16.27531374      -0.04139528       0.04176629       0.34676623
O        0.00000902       1.97050521      12.40114711       0.77084758       0.57637114      -0.79075229
O        1.18247295       0.78819359      16.38893503       0.01663170      -0.05503446       0.20941790
O        1.97049401       3.94093312      12.40056292      -0.57628449      -0.76887297      -0.78655805
O        3.15285639       2.75866935      16.37807941       0.05655990      -0.01652731       0.25587002
O        1.97043419       1.97038596      10.47610354       0.12132702      -0.12092592      -1.23366955
O        3.15282654       0.78814187      14.49265071      -0.27392970       0.27110843       0.31763640
10
Lattice="3.940949890606662 0.0 0.0 0.0 3.940949890606662 0.0 0.0 0.0 26.940967945119528" Properties=species:S:1:pos:R:3:forces:R:3 tau=tau37 tau_p=3 tau_q=7 stage=B constraint=xy_fixed_z_free force_label=raw_dft energy=-15498.755228390057 free_energy=-15498.755228390057 stress="0.0011697328017641014 -0.0012082954216024785 0.00470555777789719 -0.0012082954216024785 0.0010512904694033722 -0.004700048832205993 0.00470555777789719 -0.004700048832205993 -0.01964030954673147" pbc="T T T"
Sr       0.00003612       0.00009431      10.80788233      -0.01003527       0.00977456      -0.31603280
Sr       1.18218697       2.75865092      14.95222983      -0.49975175       0.49865929      -0.10814420
Ti       1.97047269       1.97057450      12.20427812       0.45531949      -0.45493074      -0.12645020
Ti       3.15248573       0.78812580      16.28717767      -0.03100416       0.03213956       0.45570798
O        0.00000902       1.97050521      12.34916453       0.66975978       0.49020987      -0.37984630
O        1.18247295       0.78819359      16.39694317       0.01256421      -0.04205476       0.58475396
O        1.97049401       3.94093312      12.34888587      -0.49028700      -0.66871154      -0.37783724
O        3.15285639       2.75866935      16.38889893       0.04259341      -0.01327126       0.62600783
O        1.97043419       1.97038596      10.41716959       0.09600371      -0.09553139      -0.52824574
O        3.15282654       0.78814187      14.52268992      -0.24516240       0.24371641       0.17008670
10
Lattice="3.940949890606662 0.0 0.0 0.0 3.940949890606662 0.0 0.0 0.0 26.940967945119528" Properties=species:S:1:pos:R:3:forces:R:3 tau=tau37 tau_p=3 tau_q=7 stage=B constraint=xy_fixed_z_free force_label=raw_dft energy=-15498.80579285567 free_energy=-15498.80579285567 stress="4.4071565529573677e-05 -0.0011045436110849404 0.004397974976805373 -0.0011045436110849404 -3.856261983837697e-05 -0.004393384188729376 0.004397974976805373 -0.004393384188729376 -0.018229101292169914" pbc="T T T"
Sr       0.00003612       0.00009431      10.80673176      -0.01185587       0.01157742      -0.52225379
Sr       1.18218697       2.75865092      14.98710427      -0.44874209       0.44796947      -0.42443720
Ti       1.97047269       1.97057450      12.18206567       0.41452431      -0.41428957      -0.19814798
Ti       3.15248573       0.78812580      16.30075555      -0.02870740       0.03003511       0.44022017
O        0.00000902       1.97050521      12.32557693       0.62821975       0.45540639      -0.24638702
O        1.18247295       0.78819359      16.41351576       0.01148795      -0.03763864       0.62900111
O        1.97049401       3.94093312      12.32543480      -0.45553829      -0.62753789      -0.24529867
O        3.15285639       2.75866935      16.40725329       0.03789498      -0.01236932       0.66196856
O        1.97043419       1.97038596      10.39068670       0.08793070      -0.08743756      -0.28651937
O        3.15282654       0.78814187      14.53619522      -0.23521403       0.23428483       0.19185418
10
Lattice="3.940949890606662 0.0 0.0 0.0 3.940949890606662 0.0 0.0 0.0 26.940967945119528" Properties=species:S:1:pos:R:3:forces:R:3 tau=tau37 tau_p=3 tau_q=7 stage=B constraint=xy_fixed_z_free force_label=raw_dft energy=-15498.88326040017 free_energy=-15498.88326040017 stress="-0.00026902018125343936 -0.0009567202350378287 0.004056420343951177 -0.0009567202350378287 -0.00031125543155261415 -0.004054584028720778 0.004056420343951177 -0.004054584028720778 -0.015931870938940888" pbc="T T T"
Sr       0.00003612       0.00009431      10.79287303      -0.01343479       0.01312805      -0.71972042
Sr       1.18218697       2.75865092      15.02268935      -0.39415037       0.39370994      -0.60903392
Ti       1.97047269       1.97057450      12.14749046       0.37184348      -0.37173318      -0.23691302
Ti       3.15248573       0.78812580      16.32715213      -0.02702409       0.02844411       0.42944545
O        0.00000902       1.97050521      12.29061306       0.57178558       0.40801042      -0.10739138
O        1.18247295       0.78819359      16.44819644       0.01042171      -0.03241313       0.58144624
O        1.97049401       3.94093312      12.29066457      -0.40821379      -0.57158940      -0.10764335
O        3.15285639       2.75866935      16.44485364       0.03241415      -0.01144938       0.59914957
O        1.97043419       1.97038596      10.35232482       0.07816874      -0.07764397      -0.06417165
O        3.15282654       0.78814187      14.55846247      -0.22181061       0.22153653       0.23483222
10
Lattice="3.940949890606662 0.0 0.0 0.0 3.940949890606662 0.0 0.0 0.0 26.940967945119528" Properties=species:S:1:pos:R:3:forces:R:3 tau=tau37 tau_p=3 tau_q=7 stage=B constraint=xy_fixed_z_free force_label=raw_dft energy=-15498.983389313038 free_energy=-15498.983389313038 stress="0.00037369014938617686 -0.000778597657689135 0.0036965025587929923 -0.000778597657689135 0.00038746251361416865 -0.0036974207164081918 0.0036965025587929923 -0.0036974207164081918 -0.012905623439243492" pbc="T T T"
Sr       0.00003612       0.00009431      10.76187587      -0.01426088       0.01394592      -0.86518958
Sr       1.18218697       2.75865092      15.05798627      -0.33960570       0.33947072      -0.63706743
Ti       1.97047269       1.97057450      12.10007174       0.32902870      -0.32909246      -0.22247627
Ti       3.15248573       0.78812580      16.36877856      -0.02613398       0.02756865       0.40994749
O        0.00000902       1.97050521      12.24433946       0.50397016       0.35169786       0.01191346
O        1.18247295       0.78819359      16.50180732       0.00923026      -0.02695827       0.44436479
O        1.97049401       3.94093312      12.24462539      -0.35196114      -0.50426661       0.01014172
O        3.15285639       2.75866935      16.50239646       0.02677547      -0.01034458       0.44125067
O        1.97043419       1.97038596      10.30203315       0.06734491      -0.06680189       0.10748831
O        3.15282654       0.78814187      14.59140575      -0.20438779       0.20478091       0.29962736
10
Lattice="3.940949890606662 0.0 0.0 0.0 3.940949890606662 0.0 0.0 0.0 26.940967945119528" Properties=species:S:1:pos:R:3:forces:R:3 tau=tau37 tau_p=3 tau_q=7 stage=B constraint=xy_fixed_z_free force_label=raw_dft energy=-15499.104365955542 free_energy=-15499.104365955542 stress="0.002221941428782673 -0.0005619124605020645 0.00328241347433804 -0.0005619124605020645 0.00232752955453061 -0.0032851679471836382 0.00328241347433804 -0.0032851679471836382 -0.008945609644888258" pbc="T T T"
Sr       0.00003612       0.00009431      10.70292735      -0.01364202       0.01331626      -0.92503458
Sr       1.18218697       2.75865092      15.09770706      -0.28229221       0.28242900      -0.49593572
Ti       1.97047269       1.97057450      12.03252914       0.28245497      -0.28266682      -0.14511872
Ti       3.15248573       0.78812580      16.43498356      -0.02560279       0.02691277       0.37468995
O        0.00000902       1.97050521      12.17974910       0.42094024       0.28465557       0.09702366
O        1.18247295       0.78819359      16.58285648       0.00796014      -0.02106171       0.21683938
O        1.97049401       3.94093312      12.18031953      -0.28494199      -0.42168226       0.09353493
O        3.15285639       2.75866935      16.58871070       0.02077837      -0.00907908       0.18773784
O        1.97043419       1.97038596      10.23218448       0.05471822      -0.05415952       0.21952542
O        3.15282654       0.78814187      14.64335257      -0.18037317       0.18133579       0.37673758
10
Lattice="3.940949890606662 0.0 0.0 0.0 3.940949890606662 0.0 0.0 0.0 26.940967945119528" Properties=species:S:1:pos:R:3:forces:R:3 tau=tau37 tau_p=3 tau_q=7 stage=B constraint=xy_fixed_z_free force_label=raw_dft energy=-15499.226667520325 free_energy=-15499.226667520325 stress="0.005668705116241415 -0.00032227332293500755 0.002778344943593541 -0.00032227332293500755 0.005936807139879654 -0.0027838538892847376 0.002778344943593541 -0.0027838538892847376 -0.00398664036519602" pbc="T T T"
Sr       0.00003612       0.00009431      10.59486501      -0.01053587       0.01023556      -0.81852175
Sr       1.18218697       2.75865092      15.14922799      -0.22137815       0.22170854      -0.15738442
Ti       1.97047269       1.97057450      11.93312628       0.22588221      -0.22622083       0.00720886
Ti       3.15248573       0.78812580      16.54295503      -0.02178033       0.02279591       0.30567048
O        0.00000902       1.97050521      12.08503561       0.32126885       0.20835654       0.11101998
O        1.18247295       0.78819359      16.70542693       0.00627529      -0.01514225      -0.08576609
O        1.97049401       3.94093312      12.08593231      -0.20863988      -0.32229267       0.10589500
O        3.15285639       2.75866935      16.71818206       0.01488540      -0.00725925      -0.14338708
O        1.97043419       1.97038596      10.13048234       0.04019740      -0.03964230       0.23671915
O        3.15282654       0.78814187      14.73008642      -0.14617493       0.14746099       0.43854561
10
Lattice="3.940949890606662 0.0 0.0 0.0 3.940949890606662 0.0 0.0 0.0 26.940967945119528" Properties=species:S:1:pos:R:3:forces:R:3 tau=tau37 tau_p=3 tau_q=7 stage=B constraint=xy_fixed_z_free force_label=raw_dft energy=-15499.286321948717 free_energy=-15499.286321948717 stress="0.008692198143093209 -0.00018454968065508977 0.0024358721531241453 -0.00018454968065508977 0.009085169602398574 -0.002441381098815342 0.0024358721531241453 -0.002441381098815342 -0.000863986315902684" pbc="T T T"
Sr       0.00003612       0.00009431      10.48855151      -0.00666121       0.00638791      -0.57276671
Sr       1.18218697       2.75865092      15.19229420      -0.18482298       0.18518165       0.13331556
Ti       1.97047269       1.97057450      11.85396062       0.18906864      -0.18938643       0.12438174
Ti       3.15248573       0.78812580      16.63971274      -0.01984763       0.02062179       0.19614252
O        0.00000902       1.97050521      12.00772683       0.25582014       0.16077982       0.05558468
O        1.18247295       0.78819359      16.80291008       0.00505710      -0.01193069      -0.23361429
O        1.97049401       3.94093312      12.00876757      -0.16103385      -0.25685552       0.05002441
O        3.15285639       2.75866935      16.81989355       0.01173297      -0.00591225      -0.30380386
O        1.97043419       1.97038596      10.04906415       0.03124765      -0.03070900       0.14904325
O        3.15282654       0.78814187      14.81243872      -0.12056083       0.12182272       0.40169296
10
Lattice="3.940949890606662 0.0 0.0 0.0 3.940949890606662 0.0 0.0 0.0 26.940967945119528" Properties=species:S:1:pos:R:3:forces:R:3 tau=tau37 tau_p=3 tau_q=7 stage=B constraint=xy_fixed_z_free force_label=raw_dft energy=-15499.31473076953 free_energy=-15499.31473076953 stress="0.01058360283040408 -0.00011293338666953257 0.002219186955937075 -0.00011293338666953257 0.011021564012854217 -0.0022237777440130718 0.002219186955937075 -0.0022237777440130718 0.000560994302886865" pbc="T T T"
Sr       0.00003612       0.00009431      10.40363732      -0.00363554       0.00339900      -0.31556949
Sr       1.18218697       2.75865092      15.22940801      -0.16365792       0.16398599       0.28977850
Ti       1.97047269       1.97057450      11.80196939       0.16684274      -0.16720501       0.15535068
Ti       3.15248573       0.78812580      16.71109663      -0.01807151       0.01875543       0.07697163
O        0.00000902       1.97050521      11.95359573       0.21564254       0.13302682       0.00332058
O        1.18247295       0.78819359      16.86485886       0.00411094      -0.01020265      -0.23546034
O        1.97049401       3.94093312      11.95460960      -0.13329704      -0.21656119      -0.00179206
O        3.15285639       2.75866935      16.88311824       0.01008155      -0.00489589      -0.30723757
O        1.97043419       1.97038596       9.99379904       0.02604090      -0.02550406       0.05460612
O        3.15282654       0.78814187      14.87922714      -0.10405692       0.10520157       0.28003170
10
Lattice="3.940949890606662 0.0 0.0 0.0 3.940949890606662 0.0 0.0 0.0 26.940967945119528" Properties=species:S:1:pos:R:3:forces:R:3 tau=tau37 tau_p=3 tau_q=7 stage=B constraint=xy_fixed_z_free force_label=raw_dft energy=-15499.330881814309 free_energy=-15499.330881814309 stress="0.011442080200615568 -7.712523967675394e-05 0.0020704454222747635 -7.712523967675394e-05 0.011850660339379324 -0.0020741180527355614 0.0020704454222747635 -0.0020741180527355614 0.0008731678920546786" pbc="T T T"
Sr       0.00003612       0.00009431      10.34114504      -0.00156477       0.00137117      -0.09832670
Sr       1.18218697       2.75865092      15.26458186      -0.14959578       0.14989506       0.31180951
Ti       1.97047269       1.97057450      11.77068930       0.15276904      -0.15295184       0.10859183
Ti       3.15248573       0.78812580      16.75899995      -0.01731587       0.01789256      -0.01672374
O        0.00000902       1.97050521      11.91749823       0.18986748       0.11572535      -0.02467333
O        1.18247295       0.78819359      16.89896142       0.00351547      -0.00925443      -0.14594301
O        1.97049401       3.94093312      11.91836078      -0.11607142      -0.19066093      -0.02880561
O        3.15285639       2.75866935      16.91609637       0.00913873      -0.00427215      -0.21171312
O        1.97043419       1.97038596       9.95854628       0.02279154      -0.02224004      -0.01513146
O        3.15282654       0.78814187      14.93044074      -0.09353390       0.09449524       0.12091564
10
Lattice="3.940949890606662 0.0 0.0 0.0 3.940949890606662 0.0 0.0 0.0 26.940967945119528" Properties=species:S:1:pos:R:3:forces:R:3 tau=tau37 tau_p=3 tau_q=7 stage=B constraint=xy_fixed_z_free force_label=raw_dft energy=-15499.339154483174 free_energy=-15499.339154483174 stress="0.01143473493969397 -5.6925772142366004e-05 0.001963939138911627 -5.6925772142366004e-05 0.011766189838780973 -0.001966693611757226 0.001963939138911627 -0.001966693611757226 0.000493968796977305" pbc="T T T"
Sr       0.00003612       0.00009431      10.30257392      -0.00041780       0.00021623       0.03603170
Sr       1.18218697       2.75865092      15.29770119      -0.13939981       0.13950934       0.22634758
Ti       1.97047269       1.97057450      11.75351461       0.14297956      -0.14321610       0.04566382
Ti       3.15248573       0.78812580      16.78558727      -0.01652577       0.01715954      -0.05932563
O        0.00000902       1.97050521      11.89547491       0.17347773       0.10513755      -0.03144511
O        1.18247295       0.78819359      16.91374542       0.00308430      -0.00867799      -0.02602779
O        1.97049401       3.94093312      11.89612655      -0.10532935      -0.17403746      -0.03448261
O        3.15285639       2.75866935      16.92818925       0.00866513      -0.00389522      -0.08352794
O        1.97043419       1.97038596       9.93797222       0.02077477      -0.02025721      -0.04657142
O        3.15282654       0.78814187      14.96443463      -0.08730875       0.08806131      -0.02666234
10
Lattice="3.940949890606662 0.0 0.0 0.0 3.940949890606662 0.0 0.0 0.0 26.940967945119528" Properties=species:S:1:pos:R:3:forces:R:3 tau=tau37 tau_p=3 tau_q=7 stage=B constraint=xy_fixed_z_free force_label=raw_dft energy=-15499.341801062372 free_energy=-15499.341801062372 stress="0.010962801925481453 -5.50894569119671e-05 0.0019134404700756574 -5.50894569119671e-05 0.011226313161043696 -0.0019152767853060563 0.0019134404700756574 -0.0019152767853060563 8.17160277527512e-05" pbc="T T T"
Sr       0.00003612       0.00009431      10.29352561      -0.00013447      -0.00006402       0.05377179
Sr       1.18218697       2.75865092      15.31682523      -0.13431906       0.13433680       0.10717644
Ti       1.97047269       1.97057450      11.74890528       0.13881515      -0.13904552       0.00514092
Ti       3.15248573       0.78812580      16.79023029      -0.01583337       0.01653451      -0.05864609
O        0.00000902       1.97050521      11.88865120       0.16726183       0.10138425      -0.02110002
O        1.18247295       0.78819359      16.91515630       0.00291692      -0.00833757       0.04217612
O        1.97049401       3.94093312      11.88914960      -0.10155780      -0.16769172      -0.02342789
O        3.15285639       2.75866935      16.92703041       0.00835711      -0.00373324      -0.00654577
O        1.97043419       1.97038596       9.93192490       0.01998801      -0.01946891      -0.03374779
O        3.15282654       0.78814187      14.97392115      -0.08549432       0.08608542      -0.06479771
10
Lattice="3.940949890606662 0.0 0.0 0.0 3.940949890606662 0.0 0.0 0.0 26.940967945119528" Properties=species:S:1:pos:R:3:forces:R:3 tau=tau37 tau_p=3 tau_q=7 stage=B constraint=xy_fixed_z_free force_label=raw_dft energy=-15499.342727746049 free_energy=-15499.342727746049 stress="0.01058360283040408 -5.6925772142366004e-05 0.0018858957416196737 -5.6925772142366004e-05 0.01079845171236075 -0.0018877320568500726 0.0018858957416196737 -0.0018877320568500726 -8.997944628954627e-05" pbc="T T T"
Sr       0.00003612       0.00009431      10.29373576      -0.00015118      -0.00005399       0.02743984
Sr       1.18218697       2.75865092      15.32721164      -0.13140908       0.13136460       0.02705083
Ti       1.97047269       1.97057450      11.74643355       0.13668704      -0.13688887      -0.01079966
Ti       3.15248573       0.78812580      16.78927307      -0.01534974       0.01607711      -0.03344568
O        0.00000902       1.97050521      11.88576121       0.16468019       0.09997092      -0.00974577
O        1.18247295       0.78819359      16.91645477       0.00287244      -0.00809872       0.05587624
O        1.97049401       3.94093312      11.88616131      -0.10013598      -0.16503526      -0.01162601
O        3.15285639       2.75866935      16.92633950       0.00814500      -0.00366254       0.01454884
O        1.97043419       1.97038596       9.92915249       0.01963114      -0.01910947      -0.01057649
O        3.15282654       0.78814187      14.97479667      -0.08497007       0.08543596      -0.04872240
10
Lattice="3.940949890606662 0.0 0.0 0.0 3.940949890606662 0.0 0.0 0.0 26.940967945119528" Properties=species:S:1:pos:R:3:forces:R:3 tau=tau37 tau_p=3 tau_q=7 stage=B constraint=xy_fixed_z_free force_label=raw_dft energy=-15499.343131971158 free_energy=-15499.343131971158 stress="0.010439452084817766 -5.6925772142366004e-05 0.0018583510131636902 -5.6925772142366004e-05 0.01061757466216646 -0.0018592691707788897 0.0018583510131636902 -0.0018592691707788897 -4.4071565529573677e-05" pbc="T T T"
Sr       0.00003612       0.00009431      10.29124334      -0.00015889      -0.00004911       0.00524017
Sr       1.18218697       2.75865092      15.33523498      -0.12862355       0.12852585      -0.00821776
Ti       1.97047269       1.97057450      11.74112311       0.13448464      -0.13466976      -0.01136633
Ti       3.15248573       0.78812580      16.79165718      -0.01504095       0.01576909      -0.01121515
O        0.00000902       1.97050521      11.88065607       0.16184837       0.09831256      -0.00327584
O        1.18247295       0.78819359      16.92260268       0.00284673      -0.00784675       0.04173235
O        1.97049401       3.94093312      11.88097972      -0.09847608      -0.16214019      -0.00481619
O        3.15285639       2.75866935      16.93081959       0.00792491      -0.00358772       0.00712504
O        1.97043419       1.97038596       9.92390229       0.01923185      -0.01870915       0.00427215
O        3.15282654       0.78814187      14.97710099      -0.08403728       0.08439543      -0.01947868
10
Lattice="3.940949890606662 0.0 0.0 0.0 3.940949890606662 0.0 0.0 0.0 26.940967945119528" Properties=species:S:1:pos:R:3:forces:R:3 tau=tau37 tau_p=3 tau_q=7 stage=B constraint=xy_fixed_z_free force_label=raw_dft energy=-15499.343311566288 free_energy=-15499.343311566288 stress="0.01046791497088895 -5.50894569119671e-05 0.0018308062847077066 -5.50894569119671e-05 0.010612065716475263 -0.0018308062847077066 0.0018308062847077066 -0.0018308062847077066 8.906128867434682e-05" pbc="T T T"
Sr       0.00003612       0.00009431      10.28571455      -0.00012624      -0.00008176      -0.00319871
Sr       1.18218697       2.75865092      15.34188727      -0.12605733       0.12591438      -0.01402742
Ti       1.97047269       1.97057450      11.73437968       0.13217527      -0.13235191      -0.00538260
Ti       3.15248573       0.78812580      16.79689174      -0.01474502       0.01545002       0.00328021
O        0.00000902       1.97050521      11.87416207       0.15872603       0.09638860      -0.00109503
O        1.18247295       0.78819359      16.93115550       0.00281716      -0.00761149       0.02055108
O        1.97049401       3.94093312      11.87441398      -0.09654775      -0.15895511      -0.00229702
O        3.15285639       2.75866935      16.93780232       0.00772411      -0.00350339      -0.00747291
O        1.97043419       1.97038596       9.91731146       0.01881328      -0.01829237       0.00754413
O        3.15282654       0.78814187      14.98160140      -0.08277949       0.08304303       0.00209802
