10
Lattice="3.940949890606662 0.0 0.0 0.0 3.940949890606662 0.0 0.0 0.0 26.940967945119528" Properties=species:S:1:pos:R:3:forces:R:3 tau=tau17 tau_p=1 tau_q=7 stage=A constraint=rigid_scf force_label=raw_dft energy=-15498.577985680678 free_energy=-15498.577985680678 stress="0.007496756928103524 -0.001264303036129645 0.0032511961154212585 -0.001264303036129645 0.014762138137176783 -0.016203645593039922 0.0032511961154212585 -0.016203645593039922 -0.016859210130292332" pbc="T T T"
Sr       0.00003626       0.00009419      10.75260867      -0.00343062      -0.00585749       0.28869015
Sr       0.39399686       2.75865074      14.64522241      -0.53040496       0.90656018       3.06685530
Ti       1.97047258       1.97057465      12.38212169       0.75427862      -0.61999942      -1.57231366
Ti       2.36429564       0.78812574      16.28444791      -0.01657976       0.16973266       0.03808061
O        0.00000906       1.97050529      12.45001441       0.31584665       0.04353700      -0.78179945
O        0.39428297       0.78819352      16.39256827      -0.00262561       0.04876920      -0.06886803
O        1.97049386       3.94093294      12.44909065      -0.60623476      -1.94034111      -2.07042222
O        2.36466649       2.75866926      16.37955485       0.04959709      -0.01103672      -0.14803435
O        1.97043435       1.97038588      10.49176941       0.08901005      -0.28374900       0.25443585
O        2.36463654       0.78814190      14.44792112      -0.04945671       1.69238469       0.99337579
