10
Lattice="3.940949890606662 0.0 0.0 0.0 3.940949890606662 0.0 0.0 0.0 26.940967945119528" Properties=species:S:1:pos:R:3:forces:R:3 tau=tau13 tau_p=1 tau_q=3 stage=A constraint=rigid_scf force_label=raw_dft energy=-15498.57820160301 free_energy=-15498.57820160301 stress="0.007486657194336329 0.001264303036129645 0.0032511961154212585 0.001264303036129645 0.014749283930563992 0.016206400065885522 0.0032511961154212585 0.016206400065885522 -0.016871146179289923" pbc="T T T"
Sr       0.00003626       0.00009419      10.75260867      -0.00342985       0.00577727       0.28899688
Sr       0.39399686       1.18227078      14.64522241      -0.53021804      -0.90664708       3.06519720
Ti       1.97047258       1.97057465      12.38212169       0.75409144       0.62018736      -1.57164080
Ti       2.36429564       3.15269568      16.28444791      -0.01656305      -0.16982985       0.03792583
O        0.00000906       1.97050529      12.45001441       0.31596518      -0.04396124      -0.78157088
O        0.39428297       3.15276346      16.39256827      -0.00266238      -0.04878103      -0.06886828
O        1.97049386       3.94093294      12.44909065      -0.60626613       1.94001843      -2.07016896
O        2.36466649       1.18228930      16.37955485       0.04957010       0.01098812      -0.14782249
O        1.97043435       1.97038588      10.49176941       0.08903190       0.28432416       0.25487526
O        2.36463654       3.15271183      14.44792112      -0.04951919      -1.69207590       0.99307651
