10
Lattice="3.940949890606662 0.0 0.0 0.0 3.940949890606662 0.0 0.0 0.0 26.940967945119528" Properties=species:S:1:pos:R:3:forces:R:3 tau=tau30 tau_p=3 tau_q=0 stage=B constraint=xy_fixed_z_free force_label=raw_dft energy=-15498.679914354478 free_energy=-15498.679914354478 stress="0.015054112258810209 0.0 0.017649743836979058 0.0 0.006642870345968032 0.0 0.017649743836979058 0.0 -0.017925191121538897" pbc="T T T"
Sr       0.00003626       0.00009419      10.75260867       0.00418293       0.00003008       0.23955688
Sr       1.18218684       3.94093570      14.64522241      -0.85324964       0.00008253       2.98577094
Ti       1.97047258       1.97057465      12.38212169       0.51592862      -0.00049442      -1.26276749
Ti       3.15248562       1.97041071      16.28444791      -0.18968108      -0.00005554       0.14085043
O        0.00000906       1.97050529      12.45001441       2.13977207      -0.00002340      -2.36158294
O        1.18247295       1.97047849      16.39256827       0.01301030       0.00001363      -0.18917843
O        1.97049386       3.94093294      12.44909065       0.09020407       0.00013215      -0.80087575
O        3.15285647       0.00000434      16.37955485      -0.06573179       0.00003805      -0.03417767
O        1.97043435       1.97038588      10.49176941       0.30927723       0.00020852       0.22093875
O        3.15282651       1.97042687      14.44792112      -1.96371218       0.00006788       1.06146503
10
Lattice="3.940949890606662 0.0 0.0 0.0 3.940949890606662 0.0 0.0 0.0 26.940967945119528" Properties=species:S:1:pos:R:3:forces:R:3 tau=tau30 tau_p=3 tau_q=0 stage=B constraint=xy_fixed_z_free force_label=raw_dft energy=-15498.994999594192 free_energy=-15498.994999594192 stress="0.012793608210189161 0.0 0.015075229883959798 0.0 0.0052839970754728445 0.0 0.015075229883959798 0.0 -0.01734307919350244" pbc="T T T"
Sr       0.00003612       0.00009431      10.75753921       0.00295677       0.00001568       0.20056636
Sr       1.18218697       3.94093589      14.70667500      -0.62230132       0.00004397       2.11600145
Ti       1.97047269       1.97057450      12.35613203       0.50155512      -0.00046871      -0.90804730
Ti       3.15248573       1.97041077      16.28734686      -0.16861423      -0.00000257       0.24197809
O        0.00000902       1.97050521      12.40140903       1.77710742      -0.00001466      -1.80162778
O        1.18247295       1.97047857      16.38867471       0.01616607       0.00000129      -0.03099079
O        1.97049401       3.94093312      12.43260724      -0.05688771       0.00013498      -0.36288241
O        3.15285639       0.00000441      16.37885137      -0.05835941      -0.00000309       0.11509286
O        1.97043419       1.97038596      10.49631669       0.28580871       0.00020440      -0.14733064
O        3.15282654       1.97042684      14.46976782      -1.67743115       0.00008845       0.57724043
10
Lattice="3.940949890606662 0.0 0.0 0.0 3.940949890606662 0.0 0.0 0.0 26.940967945119528" Properties=species:S:1:pos:R:3:forces:R:3 tau=tau30 tau_p=3 tau_q=0 stage=B constraint=xy_fixed_z_free force_label=raw_dft energy=-15499.231370327741 free_energy=-15499.231370327741 stress="0.009997818271906829 -0.0 0.012697201660593217 -0.0 0.003642331259496225 0.0 0.012697201660593217 0.0 -0.01666456071587005" pbc="T T T"
Sr       0.00003612       0.00009431      10.76388966       0.00110275       0.00000591       0.07385648
Sr       1.18218697       3.94093589      14.77427252      -0.43598196       0.00000463       1.24411928
Ti       1.97047269       1.97057450      12.32714789       0.48245285      -0.00042320      -0.59240942
Ti       3.15248573       1.97041077      16.29481476      -0.14866890       0.00003754       0.19610909
O        0.00000902       1.97050521      12.34409060       1.44756913      -0.00002083      -1.22364404
O        1.18247295       1.97047857      16.38749449       0.01751255      -0.00001080       0.17021474
O        1.97049401       3.94093312      12.42063695      -0.16526126       0.00014192      -0.03961042
O        3.15285639       0.00000441      16.38227106      -0.05098035      -0.00003882       0.29685057
O        1.97043419       1.97038596      10.49217083       0.26089395       0.00020749      -0.43347694
O        3.15282654       1.97042684      14.48853121      -1.40863852       0.00009616       0.30799091
10
Lattice="3.940949890606662 0.0 0.0 0.0 3.940949890606662 0.0 0.0 0.0 26.940967945119528" Properties=species:S:1:pos:R:3:forces:R:3 tau=tau30 tau_p=3 tau_q=0 stage=B constraint=xy_fixed_z_free force_label=raw_dft energy=-15499.418379066732 free_energy=-15499.418379066732 stress="0.005420802560137563 -0.0 0.009733388878729387 -0.0 0.0008805131529762741 0.0 0.009733388878729387 0.0 -0.01582352834034735" pbc="T T T"
Sr       0.00003612       0.00009431      10.77123119      -0.00239370      -0.00006119      -0.24658782
Sr       1.18218697       3.94093589      14.87566882      -0.24571956      -0.00003265       0.09025858
Ti       1.97047269       1.97057450      12.28091681       0.45312376      -0.00044634      -0.26834655
Ti       3.15248573       1.97041077      16.30820114      -0.11966274       0.00011750       0.16729937
O        0.00000902       1.97050521      12.25062009       1.04621787       0.00003111      -0.38307457
O        1.18247295       1.97047857      16.39443188       0.01774601      -0.00002880       0.45819604
O        1.97049401       3.94093312      12.41041551      -0.26026275       0.00017072       0.23107790
O        3.15285639       0.00000441      16.39795364      -0.04132894      -0.00008433       0.53766318
O        1.97043419       1.97038596      10.47023101       0.22214820       0.00021803      -0.63867154
O        3.15282654       1.97042684      14.51564988      -1.06986791       0.00011596       0.05218542
10
Lattice="3.940949890606662 0.0 0.0 0.0 3.940949890606662 0.0 0.0 0.0 26.940967945119528" Properties=species:S:1:pos:R:3:forces:R:3 tau=tau30 tau_p=3 tau_q=0 stage=B constraint=xy_fixed_z_free force_label=raw_dft energy=-15499.46530455398 free_energy=-15499.46530455398 stress="0.003993985626117615 -0.0 0.008640781316642041 -0.0 0.00028279254548143116 0.0 0.008640781316642041 0.0 -0.014533516890992122" pbc="T T T"
Sr       0.00003612       0.00009431      10.76719660      -0.00393147      -0.00008922      -0.41621969
Sr       1.18218697       3.94093589      14.91720006      -0.18866266      -0.00004551      -0.27993143
Ti       1.97047269       1.97057450      12.25588732       0.44188599      -0.00044789      -0.22033531
Ti       3.15248573       1.97041077      16.31740693      -0.10872784       0.00013524       0.22152805
O        0.00000902       1.97050521      12.20512717       0.89993059       0.00005451      -0.04900343
O        1.18247295       1.97047857      16.40874619       0.01720891      -0.00003600       0.50654975
O        1.97049401       3.94093312      12.41146701      -0.28333865       0.00017252       0.22511937
O        3.15285639       0.00000441      16.41754878      -0.03751419      -0.00009127       0.55489446
O        1.97043419       1.97038596      10.44651549       0.20300608       0.00023268      -0.53091995
O        3.15282654       1.97042684      14.52822442      -0.93985648       0.00011467      -0.01168155
10
Lattice="3.940949890606662 0.0 0.0 0.0 3.940949890606662 0.0 0.0 0.0 26.940967945119528" Properties=species:S:1:pos:R:3:forces:R:3 tau=tau30 tau_p=3 tau_q=0 stage=B constraint=xy_fixed_z_free force_label=raw_dft energy=-15499.516387668571 free_energy=-15499.516387668571 stress="0.0036744667760282056 -0.0 0.007651007407457031 -0.0 0.000983346805878613 0.0 0.007651007407457031 0.0 -0.011864432703607316" pbc="T T T"
Sr       0.00003612       0.00009431      10.74948219      -0.00503473      -0.00010747      -0.53592331
Sr       1.18218697       3.94093589      14.95351721      -0.14388665      -0.00005939      -0.48140873
Ti       1.97047269       1.97057450      12.22174225       0.43144602      -0.00045097      -0.14083706
Ti       3.15248573       1.97041077      16.33423873      -0.10086412       0.00014167       0.27809412
O        0.00000902       1.97050521      12.15583252       0.76807850       0.00007430       0.20105255
O        1.18247295       1.97047857      16.43856109       0.01583542      -0.00003831       0.44504742
O        1.97049401       3.94093312      12.41762534      -0.29818060       0.00015684       0.07662942
O        3.15285639       0.00000441      16.45419863      -0.03389460      -0.00008202       0.45359993
O        1.97043419       1.97038596      10.40795965       0.18082749       0.00025454      -0.31803543
O        3.15282654       1.97042684      14.54216234      -0.81432674       0.00011081       0.02178084
10
Lattice="3.940949890606662 0.0 0.0 0.0 3.940949890606662 0.0 0.0 0.0 26.940967945119528" Properties=species:S:1:pos:R:3:forces:R:3 tau=tau30 tau_p=3 tau_q=0 stage=B constraint=xy_fixed_z_free force_label=raw_dft energy=-15499.569123602616 free_energy=-15499.569123602616 stress="0.004992941111454618 -0.0 0.0068467013365423116 -0.0 0.0035688786502802686 0.0 0.0068467013365423116 0.0 -0.007694160815371405" pbc="T T T"
Sr       0.00003612       0.00009431      10.71247398      -0.00521034      -0.00010722      -0.53799717
Sr       1.18218697       3.94093589      14.97777821      -0.11411404      -0.00006968      -0.44424986
Ti       1.97047269       1.97057450      12.18026967       0.42084074      -0.00042372      -0.00499797
Ti       3.15248573       1.97041077      16.36157795      -0.09648887       0.00012804       0.32052143
O        0.00000902       1.97050521      12.10867028       0.66061539       0.00007173       0.29947413
O        1.18247295       1.97047857      16.48517325       0.01405545      -0.00003420       0.25351951
O        1.97049401       3.94093312      12.42570136      -0.30418002       0.00011493      -0.20079210
O        3.15285639       0.00000441      16.50842273      -0.03042181      -0.00005116       0.22164606
O        1.97043419       1.97038596      10.35624152       0.15773949       0.00026739      -0.04755358
O        3.15282654       1.97042684      14.55901101      -0.70283599       0.00010413       0.14042928
10
Lattice="3.940949890606662 0.0 0.0 0.0 3.940949890606662 0.0 0.0 0.0 26.940967945119528" Properties=species:S:1:pos:R:3:forces:R:3 tau=tau30 tau_p=3 tau_q=0 stage=B constraint=xy_fixed_z_free force_label=raw_dft energy=-15499.603111029233 free_energy=-15499.603111029233 stress="0.00723416385015648 -0.0 0.006534527747374497 -0.0 0.006677760335345613 0.0 0.006534527747374497 0.0 -0.004106000855171948" pbc="T T T"
Sr       0.00003612       0.00009431      10.67107693      -0.00423846      -0.00009076      -0.39843434
Sr       1.18218697       3.94093589      14.97846720      -0.10818816      -0.00007173      -0.22043122
Ti       1.97047269       1.97057450      12.15341072       0.41666244      -0.00039081       0.06898938
Ti       3.15248573       1.97041077      16.38935835      -0.09724863       0.00008793       0.30058639
O        0.00000902       1.97050521      12.08702470       0.61319679       0.00004679       0.21995299
O        1.18247295       1.97047857      16.52512639       0.01262437      -0.00002623       0.06208520
O        1.97049401       3.94093312      12.42609933      -0.30058304       0.00007276      -0.40657960
O        3.15285639       0.00000441      16.55256818      -0.02813070      -0.00002237       0.01435215
O        1.97043419       1.97038596      10.31810461       0.14394475       0.00028565       0.12278895
O        3.15282654       1.97042684      14.57408354      -0.64803910       0.00010876       0.23668984
10
Lattice="3.940949890606662 0.0 0.0 0.0 3.940949890606662 0.0 0.0 0.0 26.940967945119528" Properties=species:S:1:pos:R:3:forces:R:3 tau=tau30 tau_p=3 tau_q=0 stage=B constraint=xy_fixed_z_free force_label=raw_dft energy=-15499.624463802153 free_energy=-15499.624463802153 stress="0.009392752403490391 -0.0 0.006472093029540935 -0.0 0.009173312733457721 0.0 0.006472093029540935 0.0 -0.0016857373815061933" pbc="T T T"
Sr       0.00003612       0.00009431      10.63323772      -0.00296731      -0.00006299      -0.19771603
Sr       1.18218697       3.94093589      14.96883661      -0.11270636      -0.00006839       0.01819955
Ti       1.97047269       1.97057450      12.14011021       0.41732372      -0.00036433       0.06651830
Ti       3.15248573       1.97041077      16.41526662      -0.10024808       0.00006453       0.20334778
O        0.00000902       1.97050521      12.08235237       0.59576394       0.00001414       0.09436848
O        1.18247295       1.97047857      16.55276477       0.01134165      -0.00001877      -0.04867818
O        1.97049401       3.94093312      12.41571143      -0.29306359       0.00004448      -0.47496889
O        3.15285639       0.00000441      16.58134967      -0.02629416       0.00000103      -0.09540747
O        1.97043419       1.97038596      10.29643729       0.13615714       0.00028591       0.16827510
O        3.15282654       1.97042684      14.58925328      -0.62530669       0.00010439       0.26606135
10
Lattice="3.940949890606662 0.0 0.0 0.0 3.940949890606662 0.0 0.0 0.0 26.940967945119528" Properties=species:S:1:pos:R:3:forces:R:3 tau=tau30 tau_p=3 tau_q=0 stage=B constraint=xy_fixed_z_free force_label=raw_dft energy=-15499.638774541043 free_energy=-15499.638774541043 stress="0.01090312168049349 -0.0 0.006433530409702558 -0.0 0.010610229401244864 9.181576151994517e-07 0.006433530409702558 9.181576151994517e-07 -0.00041959803014614944" pbc="T T T"
Sr       0.00003612       0.00009431      10.60273939      -0.00193347      -0.00004499      -0.01023350
Sr       1.18218697       3.94093589      14.96149078      -0.11688852      -0.00006865       0.17745317
Ti       1.97047269       1.97057450      12.13379557       0.41834240      -0.00034324       0.01013220
Ti       3.15248573       1.97041077      16.43800171      -0.10238210       0.00004525       0.08289211
O        0.00000902       1.97050521      12.08315473       0.58422457      -0.00001311       0.01256344
O        1.18247295       1.97047857      16.56992559       0.01014017      -0.00001028      -0.07466355
O        1.97049401       3.94093312      12.39578372      -0.28568093       0.00003111      -0.42200879
O        3.15285639       0.00000441      16.59786576      -0.02448513       0.00001183      -0.11434364
O        1.97043419       1.97038596      10.28637370       0.13045777       0.00028385       0.11816919
O        3.15282654       1.97042684      14.60618901      -0.61179503       0.00010824       0.22003964
10
Lattice="3.940949890606662 0.0 0.0 0.0 3.940949890606662 0.0 0.0 0.0 26.940967945119528" Properties=species:S:1:pos:R:3:forces:R:3 tau=tau30 tau_p=3 tau_q=0 stage=B constraint=xy_fixed_z_free force_label=raw_dft energy=-15499.649713653413 free_energy=-15499.649713653413 stress="0.011648665664035445 -0.0 0.006282034403194648 -0.0 0.011093180306839775 9.181576151994517e-07 0.006282034403194648 9.181576151994517e-07 2.8462886071183002e-05" pbc="T T T"
Sr       0.00003612       0.00009431      10.57929735      -0.00123824      -0.00003574       0.12655253
Sr       1.18218697       3.94093589      14.96349023      -0.11485092      -0.00006505       0.23202278
Ti       1.97047269       1.97057450      12.12756248       0.41384039      -0.00033656      -0.06297043
Ti       3.15248573       1.97041077      16.45823318      -0.10192187       0.00004782      -0.01613624
O        0.00000902       1.97050521      12.08180067       0.56517990      -0.00003625      -0.00266803
O        1.18247295       1.97047857      16.58160263       0.00918989      -0.00000746      -0.04382240
O        1.97049401       3.94093312      12.36855064      -0.27934650       0.00003677      -0.29548069
O        3.15285639       0.00000441      16.60816077      -0.02235471       0.00000591      -0.07688730
O        1.97043419       1.97038596      10.28084252       0.12423005       0.00028256       0.01580689
O        3.15282654       1.97042684      14.62577949      -0.59272772       0.00010799       0.12358290
10
Lattice="3.940949890606662 0.0 0.0 0.0 3.940949890606662 0.0 0.0 0.0 26.940967945119528" Properties=species:S:1:pos:R:3:forces:R:3 tau=tau30 tau_p=3 tau_q=0 stage=B constraint=xy_fixed_z_free force_label=raw_dft energy=-15499.658040745046 free_energy=-15499.658040745046 stress="0.011625711723655457 -0.0 0.005989142123946023 -0.0 0.010827832756047134 9.181576151994517e-07 0.005989142123946023 9.181576151994517e-07 -6.886182113995888e-05" pbc="T T T"
Sr       0.00003612       0.00009431      10.56385405      -0.00121922      -0.00003471       0.18285789
Sr       1.18218697       3.94093589      14.97713962      -0.10576284      -0.00006685       0.18232901
Ti       1.97047269       1.97057450      12.11712492       0.40133275      -0.00033501      -0.11174297
Ti       3.15248573       1.97041077      16.47518841      -0.09836809       0.00005502      -0.06296066
O        0.00000902       1.97050521      12.07515263       0.53611075      -0.00004757       0.03748643
O        1.18247295       1.97047857      16.59129564       0.00858260      -0.00000771       0.01214923
O        1.97049401       3.94093312      12.33870679      -0.27342397       0.00004654      -0.15410627
O        3.15285639       0.00000441      16.61642202      -0.01999496      -0.00000694      -0.01808822
O        1.97043419       1.97038596      10.27434196       0.11659053       0.00028334      -0.08527115
O        3.15282654       1.97042684      14.64609391      -0.56384781       0.00011364       0.01734698
10
Lattice="3.940949890606662 0.0 0.0 0.0 3.940949890606662 0.0 0.0 0.0 26.940967945119528" Properties=species:S:1:pos:R:3:forces:R:3 tau=tau30 tau_p=3 tau_q=0 stage=B constraint=xy_fixed_z_free force_label=raw_dft energy=-15499.663549825766 free_energy=-15499.663549825766 stress="0.011143678975675746 -0.0 0.005642078545400631 -0.0 0.010225521360476294 9.181576151994517e-07 0.005642078545400631 9.181576151994517e-07 -0.0003066646434766169" pbc="T T T"
Sr       0.00003612       0.00009431      10.55642854      -0.00163419      -0.00004037       0.15741759
Sr       1.18218697       3.94093589      14.99735264      -0.09400030      -0.00006891       0.07731436
Ti       1.97047269       1.97057450      12.10248900       0.38349366      -0.00033553      -0.11612413
Ti       3.15248573       1.97041077      16.48757117      -0.09324080       0.00006094      -0.05555511
O        0.00000902       1.97050521      12.06541588       0.50550254      -0.00004808       0.09077768
O        1.18247295       1.97047857      16.60102260       0.00838488      -0.00000848       0.05638532
O        1.97049401       3.94093312      12.31314196      -0.26725100       0.00005631      -0.05556617
O        3.15285639       0.00000441      16.62497516      -0.01788896      -0.00001646       0.02573571
O        1.97043419       1.97038596      10.26407369       0.10861574       0.00028873      -0.13004408
O        3.15282654       1.97042684      14.66284931      -0.53198156       0.00011133      -0.05034117
10
Lattice="3.940949890606662 0.0 0.0 0.0 3.940949890606662 0.0 0.0 0.0 26.940967945119528" Properties=species:S:1:pos:R:3:forces:R:3 tau=tau30 tau_p=3 tau_q=0 stage=B constraint=xy_fixed_z_free force_label=raw_dft energy=-15499.666698046822 free_energy=-15499.666698046822 stress="0.0107185719998384 -0.0 0.005352858896612803 -0.0 0.009753588346263775 9.181576151994517e-07 0.005352858896612803 9.181576151994517e-07 -0.0002993193825550213" pbc="T T T"
Sr       0.00003612       0.00009431      10.55330653      -0.00215767      -0.00004885       0.09660277
Sr       1.18218697       3.94093589      15.01532210      -0.08436998      -0.00007559      -0.01110691
Ti       1.97047269       1.97057450      12.08688080       0.36612895      -0.00033501      -0.08958726
Ti       3.15248573       1.97041077      16.49638532      -0.08893266       0.00006479      -0.02701252
O        0.00000902       1.97050521      12.05762526       0.48288248      -0.00004602       0.11353374
O        1.18247295       1.97047857      16.61160458       0.00837717      -0.00000926       0.06719938
O        1.97049401       3.94093312      12.29467144      -0.26122460       0.00006376      -0.01464706
O        3.15285639       0.00000441      16.63444133      -0.01634399      -0.00002288       0.03647650
O        1.97043419       1.97038596      10.25094371       0.10170281       0.00029619      -0.10854015
O        3.15282654       1.97042684      14.67413890      -0.50606252       0.00011313      -0.06291824
10
Lattice="3.940949890606662 0.0 0.0 0.0 3.940949890606662 0.0 0.0 0.0 26.940967945119528" Properties=species:S:1:pos:R:3:forces:R:3 tau=tau30 tau_p=3 tau_q=0 stage=B constraint=xy_fixed_z_free force_label=raw_dft energy=-15499.668499304378 free_energy=-15499.668499304378 stress="0.010578093884712883 -0.0 0.005169227373572913 -0.0 0.009531394203385508 9.181576151994517e-07 0.005169227373572913 9.181576151994517e-07 -5.6925772142366004e-05" pbc="T T T"
Sr       0.00003612       0.00009431      10.55186322      -0.00262330      -0.00004988       0.04230725
Sr       1.18218697       3.94093589      15.02645447      -0.07862819      -0.00007713      -0.05078237
Ti       1.97047269       1.97057450      12.07357349       0.35253192      -0.00033527      -0.05066487
Ti       3.15248573       1.97041077      16.50277503      -0.08651968       0.00006839      -0.00219701
O        0.00000902       1.97050521      12.05508014       0.47149378      -0.00004937       0.09417180
O        1.18247295       1.97047857      16.62174714       0.00844453      -0.00001131       0.05095592
O        1.97049401       3.94093312      12.28148732      -0.25581088       0.00006813      -0.00713558
O        3.15285639       0.00000441      16.64308744      -0.01529035      -0.00002443       0.02342352
O        1.97043419       1.97038596      10.23840235       0.09650841       0.00030133      -0.05654601
O        3.15282654       1.97042684      14.68084935      -0.49010600       0.00010979      -0.04353289
10
Lattice="3.940949890606662 0.0 0.0 0.0 3.940949890606662 0.0 0.0 0.0 26.940967945119528" Properties=species:S:1:pos:R:3:forces:R:3 tau=tau30 tau_p=3 tau_q=0 stage=B constraint=xy_fixed_z_free force_label=raw_dft energy=-15499.669434695697 free_energy=-15499.669434695697 stress="0.010673582276693627 -0.0 0.005106792655739351 -0.0 0.009469877643167146 9.181576151994517e-07 0.005106792655739351 9.181576151994517e-07 0.00020474914818947773" pbc="T T T"
Sr       0.00003612       0.00009431      10.55218164      -0.00292874      -0.00005065       0.01052764
Sr       1.18218697       3.94093589      15.02953697      -0.07688858      -0.00007842      -0.04667838
Ti       1.97047269       1.97057450      12.06571525       0.34465047      -0.00033784      -0.01475042
Ti       3.15248573       1.97041077      16.50611710      -0.08611139       0.00006736       0.00885616
O        0.00000902       1.97050521      12.05827663       0.47143362      -0.00005168       0.04798141
O        1.18247295       1.97047857      16.62852667       0.00854840      -0.00001080       0.02542333
O        1.97049401       3.94093312      12.27323422      -0.25197942       0.00007019      -0.00904000
O        3.15285639       0.00000441      16.64796923      -0.01473448      -0.00002263       0.00453645
O        1.97043419       1.97038596      10.23049299       0.09368817       0.00030750      -0.00965269
O        3.15282654       1.97042684      14.68326925      -0.48567804       0.00010670      -0.01720325
10
Lattice="3.940949890606662 0.0 0.0 0.0 3.940949890606662 0.0 0.0 0.0 26.940967945119528" Properties=species:S:1:pos:R:3:forces:R:3 tau=tau30 tau_p=3 tau_q=0 stage=B constraint=xy_fixed_z_free force_label=raw_dft energy=-15499.669768715434 free_energy=-15499.669768715434 stress="0.01083334170173833 -0.0 0.005143518960347328 -0.0 0.009468959485551945 9.181576151994517e-07 0.005143518960347328 9.181576151994517e-07 0.0002993193825550213" pbc="T T T"
Sr       0.00003612       0.00009431      10.55428674      -0.00301050      -0.00005142       0.00269272
Sr       1.18218697       3.94093589      15.02650342      -0.07809623      -0.00007816      -0.02298258
Ti       1.97047269       1.97057450      12.06501137       0.34339422      -0.00033784       0.00208696
Ti       3.15248573       1.97041077      16.50576184      -0.08701256       0.00006582       0.00703994
O        0.00000902       1.97050521      12.06391590       0.47870598      -0.00005374       0.00892199
O        1.18247295       1.97047857      16.62967405       0.00866539      -0.00001003       0.00914156
O        1.97049401       3.94093312      12.27104798      -0.25085919       0.00007122      -0.00855355
O        3.15285639       0.00000441      16.64754902      -0.01470311      -0.00002083      -0.00506070
O        1.97043419       1.97038596      10.22960711       0.09354573       0.00030725       0.00876463
O        3.15282654       1.97042684      14.68196254      -0.49063025       0.00010824      -0.00205071
