10
Lattice="3.940949890606662 0.0 0.0 0.0 3.940949890606662 0.0 0.0 0.0 26.940967945119528" Properties=species:S:1:pos:R:3:forces:R:3 tau=tau52 tau_p=5 tau_q=2 stage=B constraint=xy_fixed_z_free force_label=raw_dft energy=-15499.295468103004 free_energy=-15499.295468103004 stress="0.011712936697099406 -0.0 -9.181576151994517e-07 -0.0 0.013292167795242463 0.0023670103319841864 -9.181576151994517e-07 0.0023670103319841864 -0.0005536490419652694" pbc="T T T"
Sr       0.00003626       0.00009419      10.34151360      -0.00012393       0.00039004       0.29486388
Sr       1.97037682       0.78817579      15.22327425      -0.00018409      -0.25917465       0.26587546
Ti       1.97047258       1.97057465      11.84401218       0.00008150       0.16874587      -0.15973595
Ti       3.94067560       2.75860069      16.71953193       0.00053093      -0.00461102      -0.13844619
O        0.00000906       1.97050529      11.87615575      -0.00005528      -0.11335608       0.10877746
O        1.97066293       2.75866847      16.82600260      -0.00054379       0.02195851       0.10840979
O        1.97049386       3.94093294      12.07418533      -0.00005939       0.23919461      -0.21828357
O        0.00009655       0.78819431      16.84517454       0.00027742       0.00467298       0.06501497
O        1.97043435       1.97038588      10.02033959       0.00018589       0.02012994      -0.14635953
O        0.00006660       2.75861684      14.90512964      -0.00010876      -0.07795019      -0.18011658
10
Lattice="3.940949890606662 0.0 0.0 0.0 3.940949890606662 0.0 0.0 0.0 26.940967945119528" Properties=species:S:1:pos:R:3:forces:R:3 tau=tau52 tau_p=5 tau_q=2 stage=B constraint=xy_fixed_z_free force_label=raw_dft energy=-15499.301682502795 free_energy=-15499.301682502795 stress="0.011499924130373134 -0.0 -9.181576151994517e-07 -0.0 0.012881751341248308 0.0023312021849914077 -9.181576151994517e-07 0.0023312021849914077 -0.0004875416936709088" pbc="T T T"
Sr       0.00003612       0.00009431      10.34758230      -0.00012778       0.00015247       0.23714647
Sr       1.97037695       0.78817596      15.22874647      -0.00018435      -0.25439703       0.21722556
Ti       1.97047269       1.97057450      11.84072450       0.00008408       0.16657380      -0.14605177
Ti       3.94067571       2.75860075      16.71668264       0.00054327      -0.00424078      -0.11402483
O        0.00000902       1.97050521      11.87839481      -0.00006145      -0.11419452       0.10131098
O        1.97066294       2.75866855      16.82823387      -0.00053916       0.02138078       0.08750081
O        1.97049401       3.94093312      12.06969279      -0.00006222       0.23667930      -0.20903403
O        0.00009646       0.78819439      16.84651284       0.00027742       0.00450072       0.04538100
O        1.97043419       1.97038596      10.01732723       0.00018615       0.02012582      -0.09948395
O        0.00006661       2.75861683      14.90142251      -0.00011596      -0.07658031      -0.11997024
10
Lattice="3.940949890606662 0.0 0.0 0.0 3.940949890606662 0.0 0.0 0.0 26.940967945119528" Properties=species:S:1:pos:R:3:forces:R:3 tau=tau52 tau_p=5 tau_q=2 stage=B constraint=xy_fixed_z_free force_label=raw_dft energy=-15499.307300701166 free_energy=-15499.307300701166 stress="0.011255694204730078 -0.0 -9.181576151994517e-07 -0.0 0.012404309381344594 0.0022871306194618343 -9.181576151994517e-07 0.0022871306194618343 -0.0005114137916660946" pbc="T T T"
Sr       0.00003612       0.00009431      10.35425799      -0.00012958      -0.00010850       0.17444086
Sr       1.97037695       0.78817596      15.23485467      -0.00018126      -0.24886145       0.16524866
Ti       1.97047269       1.97057450      11.83664789       0.00008048       0.16405155      -0.11705641
Ti       3.94067571       2.75860075      16.71347813       0.00054867      -0.00383274      -0.07305198
O        0.00000902       1.97050521      11.88121939      -0.00005605      -0.11508309       0.09014082
O        1.97066294       2.75866855      16.83069641      -0.00052990       0.02075497       0.06519161
O        1.97049401       3.94093312      12.06387463      -0.00005425       0.23330164      -0.19655647
O        0.00009646       0.78819439      16.84780397       0.00026662       0.00432074       0.02585656
O        1.97043419       1.97038596      10.01449073       0.00018692       0.02012325      -0.06850010
O        0.00006661       2.75861683      14.89799615      -0.00013164      -0.07466612      -0.06571380
10
Lattice="3.940949890606662 0.0 0.0 0.0 3.940949890606662 0.0 0.0 0.0 26.940967945119528" Properties=species:S:1:pos:R:3:forces:R:3 tau=tau52 tau_p=5 tau_q=2 stage=B constraint=xy_fixed_z_free force_label=raw_dft energy=-15499.313224211264 free_energy=-15499.313224211264 stress="0.010858131957348716 -0.0 -9.181576151994517e-07 -0.0 0.01162203909319466 0.002217350640706676 -9.181576151994517e-07 0.002217350640706676 -0.0006491374339460123" pbc="T T T"
Sr       0.00003612       0.00009431      10.36393897      -0.00013575      -0.00050934       0.08348578
Sr       1.97037695       0.78817596      15.24391537      -0.00018332      -0.24047836       0.08908564
Ti       1.97047269       1.97057450      11.83039920       0.00008536       0.16038439      -0.06950386
Ti       3.94067571       2.75860075      16.70924908       0.00058801      -0.00322468      -0.01530089
O        0.00000902       1.97050521      11.88588797      -0.00005322      -0.11647894       0.07258481
O        1.97066294       2.75866855      16.83429862      -0.00052965       0.01984249       0.03636311
O        1.97049401       3.94093312      12.05386111      -0.00005322       0.22765036      -0.16965578
O        0.00009646       0.78819439      16.84940099       0.00025017       0.00404177       0.00303879
O        1.97043419       1.97038596      10.01052412       0.00018075       0.02012480      -0.03333230
O        0.00006661       2.75861683      14.89384453      -0.00014912      -0.07135248       0.00323445
10
Lattice="3.940949890606662 0.0 0.0 0.0 3.940949890606662 0.0 0.0 0.0 26.940967945119528" Properties=species:S:1:pos:R:3:forces:R:3 tau=tau52 tau_p=5 tau_q=2 stage=B constraint=xy_fixed_z_free force_label=raw_dft energy=-15499.316902237962 free_energy=-15499.316902237962 stress="0.01034855448091302 -0.0 -9.181576151994517e-07 -0.0 0.010561567047639293 0.002125534879186731 -9.181576151994517e-07 0.002125534879186731 -0.0009181576151994518" pbc="T T T"
Sr       0.00003612       0.00009431      10.37564846      -0.00014141      -0.00100556      -0.03013616
Sr       1.97037695       0.78817596      15.25526326      -0.00018126      -0.22984582      -0.00126293
Ti       1.97047269       1.97057450      11.82236476       0.00008742       0.15582659      -0.01286271
Ti       3.94067571       2.75860075      16.70492492       0.00062761      -0.00243818       0.05353140
O        0.00000902       1.97050521      11.89267006      -0.00004962      -0.11839236       0.04692032
O        1.97066294       2.75866855      16.83886904      -0.00052939       0.01874848       0.00635885
O        1.97049401       3.94093312      12.03884081      -0.00004937       0.21963572      -0.12168183
O        0.00009646       0.78819439      16.85099110       0.00022986       0.00370856      -0.01661010
O        1.97043419       1.97038596      10.00563004       0.00017509       0.02022893       0.00197512
O        0.00006661       2.75861683      14.89011749      -0.00016892      -0.06646610       0.07376829
10
Lattice="3.940949890606662 0.0 0.0 0.0 3.940949890606662 0.0 0.0 0.0 26.940967945119528" Properties=species:S:1:pos:R:3:forces:R:3 tau=tau52 tau_p=5 tau_q=2 stage=B constraint=xy_fixed_z_free force_label=raw_dft energy=-15499.317688646956 free_energy=-15499.317688646956 stress="0.010212667153863502 -0.0 -9.181576151994517e-07 -0.0 0.010165841115488329 0.0020906448898091517 -9.181576151994517e-07 0.0020906448898091517 -0.0010779170402441562" pbc="T T T"
Sr       0.00003612       0.00009431      10.37870141      -0.00014321      -0.00115494      -0.06374922
Sr       1.97037695       0.78817596      15.25887790      -0.00018126      -0.22604445      -0.02448024
Ti       1.97047269       1.97057450      11.81954041       0.00008536       0.15444308       0.00193604
Ti       3.94067571       2.75860075      16.70477844       0.00064226      -0.00215484       0.06800259
O        0.00000902       1.97050521      11.89588286      -0.00004834      -0.11918374       0.03396787
O        1.97066294       2.75866855      16.84050916      -0.00053376       0.01838287       0.00364171
O        1.97049401       3.94093312      12.03135173      -0.00004757       0.21602177      -0.09424533
O        0.00009646       0.78819439      16.85117468       0.00022394       0.00358643      -0.01362942
O        1.97043419       1.97038596      10.00400607       0.00017355       0.02034437       0.00627529
O        0.00006661       2.75861683      14.89049732      -0.00017098      -0.06424056       0.08228044
10
Lattice="3.940949890606662 0.0 0.0 0.0 3.940949890606662 0.0 0.0 0.0 26.940967945119528" Properties=species:S:1:pos:R:3:forces:R:3 tau=tau52 tau_p=5 tau_q=2 stage=B constraint=xy_fixed_z_free force_label=raw_dft energy=-15499.318536825793 free_energy=-15499.318536825793 stress="0.010178695322101122 -0.0 -9.181576151994517e-07 -0.0 0.009859176472011713 0.0020603456885075694 -9.181576151994517e-07 0.0020603456885075694 -0.0012441035685952571" pbc="T T T"
Sr       0.00003612       0.00009431      10.37972551      -0.00014527      -0.00121305      -0.08194157
Sr       1.97037695       0.78817596      15.26131234      -0.00017921      -0.22292570      -0.03280651
Ti       1.97047269       1.97057450      11.81728189       0.00008665       0.15353754       0.00694069
Ti       3.94067571       2.75860075      16.70622829       0.00065100      -0.00197538       0.06806353
O        0.00000902       1.97050521      11.89927426      -0.00004679      -0.11991445       0.01890635
O        1.97066294       2.75866855      16.84200226      -0.00054070       0.01810725       0.00907471
O        1.97049401       3.94093312      12.02311375      -0.00004679       0.21234664      -0.06263130
O        0.00009646       0.78819439      16.85109311       0.00022086       0.00349284      -0.00164936
O        1.97043419       1.97038596      10.00270243       0.00017149       0.02052563       0.00219444
O        0.00006661       2.75861683      14.89258612      -0.00017098      -0.06198107       0.07384902
10
Lattice="3.940949890606662 0.0 0.0 0.0 3.940949890606662 0.0 0.0 0.0 26.940967945119528" Properties=species:S:1:pos:R:3:forces:R:3 tau=tau52 tau_p=5 tau_q=2 stage=B constraint=xy_fixed_z_free force_label=raw_dft energy=-15499.31967017993 free_energy=-15499.31967017993 stress="0.010257656877008274 -0.0 -9.181576151994517e-07 -0.0 0.0095414939371527 0.002024537541514791 -9.181576151994517e-07 0.002024537541514791 -0.0014745611300103192" pbc="T T T"
Sr       0.00003612       0.00009431      10.37834126      -0.00014501      -0.00119762      -0.08628751
Sr       1.97037695       0.78817596      15.26334194      -0.00017509      -0.21934801      -0.02599360
Ti       1.97047269       1.97057450      11.81467145       0.00008253       0.15282560       0.00328330
Ti       3.94067571       2.75860075      16.71027113       0.00064355      -0.00172495       0.05149740
O        0.00000902       1.97050521      11.90412615      -0.00004139      -0.12083079      -0.00574410
O        1.97066294       2.75866855      16.84422922      -0.00054919       0.01779820       0.02420642
O        1.97049401       3.94093312      12.01075676      -0.00004191       0.20716407      -0.01558500
O        0.00009646       0.78819439      16.85100331       0.00022189       0.00337097       0.02347263
O        1.97043419       1.97038596      10.00103616       0.00016944       0.02081591      -0.01235158
O        0.00006661       2.75861683      14.89754259      -0.00016455      -0.05887338       0.04350178
10
Lattice="3.940949890606662 0.0 0.0 0.0 3.940949890606662 0.0 0.0 0.0 26.940967945119528" Properties=species:S:1:pos:R:3:forces:R:3 tau=tau52 tau_p=5 tau_q=2 stage=B constraint=xy_fixed_z_free force_label=raw_dft energy=-15499.3204010777 free_energy=-15499.3204010777 stress="0.010486278123192938 -0.0 -9.181576151994517e-07 -0.0 0.009468959485551945 0.002004338073980403 -9.181576151994517e-07 0.002004338073980403 -0.001581067413373456" pbc="T T T"
Sr       0.00003612       0.00009431      10.37384562      -0.00014347      -0.00104952      -0.06560735
Sr       1.97037695       0.78817596      15.26355721      -0.00017304      -0.21740117      -0.00047437
Ti       1.97047269       1.97057450      11.81308740       0.00008356       0.15280760      -0.01172809
Ti       3.94067571       2.75860075      16.71551271       0.00063301      -0.00166993       0.02357444
O        0.00000902       1.97050521      11.90758580      -0.00003831      -0.12130028      -0.02861355
O        1.97066294       2.75866855      16.84653259      -0.00055613       0.01763982       0.04024676
O        1.97049401       3.94093312      12.00080557      -0.00004062       0.20329301       0.01920460
O        0.00009646       0.78819439      16.85152160       0.00022703       0.00330978       0.04743840
O        1.97043419       1.97038596       9.99957149       0.00016635       0.02106119      -0.03016470
O        0.00006661       2.75861683      14.90329997      -0.00015889      -0.05669077       0.00612385
10
Lattice="3.940949890606662 0.0 0.0 0.0 3.940949890606662 0.0 0.0 0.0 26.940967945119528" Properties=species:S:1:pos:R:3:forces:R:3 tau=tau52 tau_p=5 tau_q=2 stage=B constraint=xy_fixed_z_free force_label=raw_dft energy=-15499.320769247723 free_energy=-15499.320769247723 stress="0.010686436483306418 -0.0 -9.181576151994517e-07 -0.0 0.00959291076360387 0.0020034199163652035 -9.181576151994517e-07 0.0020034199163652035 -0.001520469010770292" pbc="T T T"
Sr       0.00003612       0.00009431      10.36950396      -0.00014090      -0.00088677      -0.04008735
Sr       1.97037695       0.78817596      15.26300478      -0.00017252      -0.21716823       0.02121160
Ti       1.97047269       1.97057450      11.81251555       0.00008510       0.15298578      -0.02393903
Ti       3.94067571       2.75860075      16.71874278       0.00061372      -0.00180286       0.00716566
O        0.00000902       1.97050521      11.90803869      -0.00003677      -0.12111747      -0.03943429
O        1.97066294       2.75866855      16.84829977      -0.00055253       0.01762491       0.04410188
O        1.97049401       3.94093312      11.99756790      -0.00003985       0.20216430       0.02512071
O        0.00009646       0.78819439      16.85282089       0.00023268       0.00331621       0.05351905
O        1.97043419       1.97038596       9.99846879       0.00016584       0.02111544      -0.03776205
O        0.00006661       2.75861683      14.90635686      -0.00015452      -0.05623131      -0.00989643
10
Lattice="3.940949890606662 0.0 0.0 0.0 3.940949890606662 0.0 0.0 0.0 26.940967945119528" Properties=species:S:1:pos:R:3:forces:R:3 tau=tau52 tau_p=5 tau_q=2 stage=B constraint=xy_fixed_z_free force_label=raw_dft energy=-15499.32117007141 free_energy=-15499.32117007141 stress="0.010890267473880697 -0.0 -9.181576151994517e-07 -0.0 0.009775624129028562 0.0020034199163652035 -9.181576151994517e-07 0.0020034199163652035 -0.0013790727380295765" pbc="T T T"
Sr       0.00003612       0.00009431      10.36472815      -0.00014192      -0.00071708      -0.01426499
Sr       1.97037695       0.78817596      15.26293433      -0.00017432      -0.21686895       0.04054553
Ti       1.97047269       1.97057450      11.81151124       0.00008125       0.15296495      -0.03368145
Ti       3.94067571       2.75860075      16.72177245       0.00060909      -0.00197461      -0.00331158
O        0.00000902       1.97050521      11.90744343      -0.00003574      -0.12063436      -0.04904765
O        1.97066294       2.75866855      16.85078056      -0.00054662       0.01758429       0.04131737
O        1.97049401       3.94093312      11.99539766      -0.00004088       0.20136854       0.02288667
O        0.00009646       0.78819439      16.85513048       0.00023834       0.00332469       0.05160873
O        1.97043419       1.97038596       9.99672119       0.00016609       0.02108099      -0.04061597
O        0.00006661       2.75861683      14.90890048      -0.00015504      -0.05612821      -0.01543665
10
Lattice="3.940949890606662 0.0 0.0 0.0 3.940949890606662 0.0 0.0 0.0 26.940967945119528" Properties=species:S:1:pos:R:3:forces:R:3 tau=tau52 tau_p=5 tau_q=2 stage=B constraint=xy_fixed_z_free force_label=raw_dft energy=-15499.321797293807 free_energy=-15499.321797293807 stress="0.011162960285594934 -0.0 -9.181576151994517e-07 -0.0 0.010036380891745206 0.0019988291282892062 -9.181576151994517e-07 0.0019988291282892062 -0.001126579393849727" pbc="T T T"
Sr       0.00003612       0.00009431      10.35756442      -0.00013935      -0.00049314       0.01804349
Sr       1.97037695       0.78817596      15.26412699      -0.00017689      -0.21560911       0.06228909
Ti       1.97047269       1.97057450      11.80894761       0.00007739       0.15234840      -0.04335214
Ti       3.94067571       2.75860075      16.72626071       0.00059470      -0.00217155      -0.01100561
O        0.00000902       1.97050521      11.90570243      -0.00003522      -0.11959024      -0.06264159
O        1.97066294       2.75866855      16.85554848      -0.00053530       0.01741665       0.03123633
O        1.97049401       3.94093312      11.99188493      -0.00004011       0.19985313       0.01626068
O        0.00009646       0.78819439      16.85973205       0.00024451       0.00332649       0.04222368
O        1.97043419       1.97038596       9.99305631       0.00016532       0.02093135      -0.03959525
O        0.00006661       2.75861683      14.91249604      -0.00015504      -0.05601174      -0.01345818
10
Lattice="3.940949890606662 0.0 0.0 0.0 3.940949890606662 0.0 0.0 0.0 26.940967945119528" Properties=species:S:1:pos:R:3:forces:R:3 tau=tau52 tau_p=5 tau_q=2 stage=B constraint=xy_fixed_z_free force_label=raw_dft energy=-15499.322734181755 free_energy=-15499.322734181755 stress="0.011509105706525129 -0.0 -9.181576151994517e-07 -0.0 0.010368753948447409 0.0019823022912156163 -9.181576151994517e-07 0.0019823022912156163 -0.0007345260921595613" pbc="T T T"
Sr       0.00003612       0.00009431      10.34681883      -0.00013858      -0.00020286       0.05541859
Sr       1.97037695       0.78817596      15.26804377      -0.00018101      -0.21229085       0.08463994
Ti       1.97047269       1.97057450      11.80335833       0.00007996       0.15064016      -0.05096724
Ti       3.94067571       2.75860075      16.73332800       0.00057156      -0.00249963      -0.01286709
O        0.00000902       1.97050521      11.90193996      -0.00003471      -0.11758889      -0.08171840
O        1.97066294       2.75866855      16.86420775      -0.00051525       0.01701813       0.01082486
O        1.97049401       3.94093312      11.98533283      -0.00004037       0.19674261       0.00560500
O        0.00009646       0.78819439      16.86813738       0.00025325       0.00330284       0.02266119
O        1.97043419       1.97038596       9.98598504       0.00016455       0.02058142      -0.03284044
O        0.00006661       2.75861683      14.91816807      -0.00015915      -0.05570295      -0.00075668
10
Lattice="3.940949890606662 0.0 0.0 0.0 3.940949890606662 0.0 0.0 0.0 26.940967945119528" Properties=species:S:1:pos:R:3:forces:R:3 tau=tau52 tau_p=5 tau_q=2 stage=B constraint=xy_fixed_z_free force_label=raw_dft energy=-15499.324095159116 free_energy=-15499.324095159116 stress="0.01190574979629129 -0.0 -9.181576151994517e-07 -0.0 0.010747034885909583 0.001943739671377239 -9.181576151994517e-07 0.001943739671377239 -0.00016985915881189857" pbc="T T T"
Sr       0.00003612       0.00009431      10.33070045      -0.00013524       0.00010259       0.09287725
Sr       1.97037695       0.78817596      15.27744201      -0.00018589      -0.20508636       0.10157709
Ti       1.97047269       1.97057450      11.79214816       0.00007585       0.14667346      -0.05359567
Ti       3.94067571       2.75860075      16.74491096       0.00053813      -0.00280996      -0.00426469
O        0.00000902       1.97050521      11.89420120      -0.00003188      -0.11382968      -0.10566463
O        1.97066294       2.75866855      16.87934087      -0.00048491       0.01620438      -0.02285325
O        1.97049401       3.94093312      11.97300497      -0.00003908       0.19059228      -0.00867490
O        0.00009646       0.78819439      16.88285748       0.00026380       0.00322648      -0.01006715
O        1.97043419       1.97038596       9.97295459       0.00016532       0.01990857      -0.01687415
O        0.00006661       2.75861683      14.92775927      -0.00016609      -0.05498176       0.02754011
10
Lattice="3.940949890606662 0.0 0.0 0.0 3.940949890606662 0.0 0.0 0.0 26.940967945119528" Properties=species:S:1:pos:R:3:forces:R:3 tau=tau52 tau_p=5 tau_q=2 stage=B constraint=xy_fixed_z_free force_label=raw_dft energy=-15499.325786890851 free_energy=-15499.325786890851 stress="0.012163752086162336 -0.0 -9.181576151994517e-07 -0.0 0.010995855599628634 0.0018794686383132775 -9.181576151994517e-07 0.0018794686383132775 0.0003837898831533708" pbc="T T T"
Sr       0.00003612       0.00009431      10.31209641      -0.00013318       0.00022523       0.10937164
Sr       1.97037695       0.78817596      15.29328349      -0.00018975      -0.19402959       0.09961739
Ti       1.97047269       1.97057450      11.77525719       0.00007816       0.14029070      -0.04642435
Ti       3.94067571       2.75860075      16.76021272       0.00050728      -0.00276728       0.01637947
O        0.00000902       1.97050521      11.88177777      -0.00003008      -0.10835297      -0.12316227
O        1.97066294       2.75866855      16.89935421      -0.00045329       0.01504970      -0.05896182
O        1.97049401       3.94093312      11.95504872      -0.00003831       0.18144712      -0.02075883
O        0.00009646       0.78819439      16.90239296       0.00027022       0.00302053      -0.04584817
O        1.97043419       1.97038596       9.95473607       0.00016404       0.01890301       0.00520443
O        0.00006661       2.75861683      14.94116042      -0.00017458      -0.05378619       0.06458251
10
Lattice="3.940949890606662 0.0 0.0 0.0 3.940949890606662 0.0 0.0 0.0 26.940967945119528" Properties=species:S:1:pos:R:3:forces:R:3 tau=tau52 tau_p=5 tau_q=2 stage=B constraint=xy_fixed_z_free force_label=raw_dft energy=-15499.327742300897 free_energy=-15499.327742300897 stress="0.012179360765620727 -0.0 -9.181576151994517e-07 -0.0 0.011027072958545416 0.001798670768175726 -9.181576151994517e-07 0.001798670768175726 0.0007519710868483509" pbc="T T T"
Sr       0.00003612       0.00009431      10.29346511      -0.00013704       0.00030159       0.09800582
Sr       1.97037695       0.78817596      15.31427202      -0.00019592      -0.18079766       0.07749074
Ti       1.97047269       1.97057450      11.75435321       0.00007893       0.13233185      -0.02742133
Ti       3.94067571       2.75860075      16.77822889       0.00051705      -0.00281536       0.03492098
O        0.00000902       1.97050521      11.86504415      -0.00003111      -0.10165782      -0.12513096
O        1.97066294       2.75866855      16.92136889      -0.00043606       0.01372609      -0.08300138
O        1.97049401       3.94093312      11.93303831      -0.00004011       0.17048239      -0.02517984
O        0.00009646       0.78819439      16.92398970       0.00026817       0.00281921      -0.07026774
O        1.97043419       1.97038596       9.93356203       0.00015992       0.01775398       0.02512405
O        0.00006661       2.75861683      14.95799766      -0.00018383      -0.05214377       0.09545966
10
Lattice="3.940949890606662 0.0 0.0 0.0 3.940949890606662 0.0 0.0 0.0 26.940967945119528" Properties=species:S:1:pos:R:3:forces:R:3 tau=tau52 tau_p=5 tau_q=2 stage=B constraint=xy_fixed_z_free force_label=raw_dft energy=-15499.330130644057 free_energy=-15499.330130644057 stress="0.01182036113807774 -0.0 -9.181576151994517e-07 -0.0 0.010773661456750365 0.0016949189576581877 -9.181576151994517e-07 0.0016949189576581877 0.0008327689569859026" pbc="T T T"
Sr       0.00003612       0.00009431      10.27266452      -0.00013781       0.00028771       0.04925617
Sr       1.97037695       0.78817596      15.34399568      -0.00019463      -0.16439556       0.02941085
Ti       1.97047269       1.97057450      11.72643798       0.00007893       0.12162449       0.00232171
Ti       3.94067571       2.75860075      16.80216114       0.00052219      -0.00249448       0.04967243
O        0.00000902       1.97050521      11.83938007      -0.00003085      -0.09259982      -0.09752143
O        1.97066294       2.75866855      16.94744159      -0.00043477       0.01217237      -0.08499321
O        1.97049401       3.94093312      11.90432933      -0.00003780       0.15667737      -0.01943291
O        0.00009646       0.78819439      16.95001385       0.00026045       0.00253768      -0.07445940
O        1.97043419       1.97038596       9.90676137       0.00016044       0.01620206       0.03966955
O        0.00006661       2.75861683      14.98213444      -0.00018640      -0.05001207       0.10607626
10
Lattice="3.940949890606662 0.0 0.0 0.0 3.940949890606662 0.0 0.0 0.0 26.940967945119528" Properties=species:S:1:pos:R:3:forces:R:3 tau=tau52 tau_p=5 tau_q=2 stage=B constraint=xy_fixed_z_free force_label=raw_dft energy=-15499.331601147242 free_energy=-15499.331601147242 stress="0.011311701819257246 -0.0 -9.181576151994517e-07 -0.0 0.010442206557663364 0.0016389113431310213 -9.181576151994517e-07 0.0016389113431310213 0.0005270224711244853" pbc="T T T"
Sr       0.00003612       0.00009431      10.26239274      -0.00013884       0.00022523       0.00179514
Sr       1.97037695       0.78817596      15.36249512      -0.00018846      -0.15571938      -0.00785035
Ti       1.97047269       1.97057450      11.71023762       0.00007688       0.11580917       0.01342039
Ti       3.94067571       2.75860075      16.81724770       0.00054327      -0.00258396       0.04451197
O        0.00000902       1.97050521      11.82027786      -0.00003214      -0.08675751      -0.05005295
O        1.97066294       2.75866855      16.95986574      -0.00045894       0.01136273      -0.05407570
O        1.97049401       3.94093312      11.88842128      -0.00003625       0.14907565      -0.00762718
O        0.00009646       0.78819439      16.96308473       0.00025145       0.00234819      -0.04742785
O        1.97043419       1.97038596       9.89229010       0.00016198       0.01532326       0.03280933
O        0.00006661       2.75861683      14.99900707      -0.00017895      -0.04908390       0.07449771
10
Lattice="3.940949890606662 0.0 0.0 0.0 3.940949890606662 0.0 0.0 0.0 26.940967945119528" Properties=species:S:1:pos:R:3:forces:R:3 tau=tau52 tau_p=5 tau_q=2 stage=B constraint=xy_fixed_z_free force_label=raw_dft energy=-15499.332221702853 free_energy=-15499.332221702853 stress="0.010977492447324644 -0.0 -9.181576151994517e-07 -0.0 0.010271429241236266 0.001617793717981434 -9.181576151994517e-07 0.001617793717981434 0.00019648572965268266" pbc="T T T"
Sr       0.00003612       0.00009431      10.25643286      -0.00013987       0.00019206      -0.01743722
Sr       1.97037695       0.78817596      15.37133503      -0.00018281      -0.15204990      -0.01977615
Ti       1.97047269       1.97057450      11.70260138       0.00007585       0.11315039       0.01206773
Ti       3.94067571       2.75860075      16.82662183       0.00055793      -0.00275468       0.02357085
O        0.00000902       1.97050521      11.80814124      -0.00003471      -0.08340299      -0.00954008
O        1.97066294       2.75866855      16.96451096      -0.00048285       0.01105369      -0.01626968
O        1.97049401       3.94093312      11.88111289      -0.00003574       0.14557740       0.00060858
O        0.00009646       0.78819439      16.96852627       0.00024657       0.00227131      -0.01354020
O        1.97043419       1.97038596       9.88592670       0.00016327       0.01488103       0.01299898
O        0.00006661       2.75861683      15.01011082      -0.00016738      -0.04891832       0.02731746
10
Lattice="3.940949890606662 0.0 0.0 0.0 3.940949890606662 0.0 0.0 0.0 26.940967945119528" Properties=species:S:1:pos:R:3:forces:R:3 tau=tau52 tau_p=5 tau_q=2 stage=B constraint=xy_fixed_z_free force_label=raw_dft energy=-15499.33233218107 free_energy=-15499.33233218107 stress="0.010961883767866254 -0.0 -9.181576151994517e-07 -0.0 0.010311828176305042 0.0016196300332118327 -9.181576151994517e-07 0.0016196300332118327 0.00011752417474552982" pbc="T T T"
Sr       0.00003612       0.00009431      10.25431461      -0.00013884       0.00022651      -0.00982907
Sr       1.97037695       0.78817596      15.37166138      -0.00017946      -0.15203010      -0.01164915
Ti       1.97047269       1.97057450      11.70208622       0.00007790       0.11295525       0.00478817
Ti       3.94067571       2.75860075      16.82914995       0.00055536      -0.00284390       0.00762641
O        0.00000902       1.97050521      11.80553989      -0.00003677      -0.08275430       0.00103847
O        1.97066294       2.75866855      16.96457128      -0.00049031       0.01106988      -0.00133620
O        1.97049401       3.94093312      11.88052127      -0.00003445       0.14533778       0.00150255
O        0.00009646       0.78819439      16.96891893       0.00024760       0.00227337       0.00003445
O        1.97043419       1.97038596       9.88549981       0.00016404       0.01483269       0.00245720
O        0.00006661       2.75861683      15.01305663      -0.00016455      -0.04906693       0.00536718
