10
Lattice="3.940949890606662 0.0 0.0 0.0 3.940949890606662 0.0 0.0 0.0 26.940967945119528" Properties=species:S:1:pos:R:3:forces:R:3 tau=tau26 tau_p=2 tau_q=6 stage=B constraint=xy_fixed_z_free force_label=raw_dft energy=-15499.358996071893 free_energy=-15499.358996071893 stress="0.010394462361672992 -3.764446222317752e-05 0.0018078523443277204 -3.764446222317752e-05 0.010875576952037506 -0.0012183951553696724 0.0018078523443277204 -0.0012183951553696724 0.00027728359979023443" pbc="T T T"
Sr       0.00003626       0.00009419      10.29336387       0.00013370       0.00036921       0.01767016
Sr       0.78809185       2.36455575      15.33002157      -0.16260916       0.05502341      -0.03648061
Ti       1.97047258       1.97057465      11.74738797       0.12750795      -0.08906430      -0.00058030
Ti       2.75839063       0.39403075      16.78537772      -0.00612103       0.01576369       0.01695874
O        0.00000906       1.97050529      11.92689390       0.16884717       0.06563718      -0.02311216
O        0.78837796       0.39409854      16.92499808       0.00252765      -0.00176866       0.00457065
O        1.97049386       3.94093294      11.84708178      -0.09503903      -0.10119245       0.00167867
O        2.75876148       2.36457427      16.92179251       0.01201348      -0.00251917      -0.00110120
O        1.97043435       1.97038588       9.92884216       0.01716057      -0.01337874       0.01115190
O        2.75873153       0.39404691      14.96955944      -0.06442105       0.07112931       0.00924440
10
Lattice="3.940949890606662 0.0 0.0 0.0 3.940949890606662 0.0 0.0 0.0 26.940967945119528" Properties=species:S:1:pos:R:3:forces:R:3 tau=tau26 tau_p=2 tau_q=6 stage=B constraint=xy_fixed_z_free force_label=raw_dft energy=-15499.359045732668 free_energy=-15499.359045732668 stress="0.01039997130736419 -3.672630460797807e-05 0.0018087705019429199 -3.672630460797807e-05 0.010891185631495897 -0.0012193133129848718 0.0018087705019429199 -0.0012193133129848718 0.00026626570840784103" pbc="T T T"
Sr       0.00003612       0.00009431      10.29372751       0.00012033       0.00038489       0.01398500
Sr       0.78809198       2.36455593      15.32927078      -0.16277834       0.05513088      -0.02895036
Ti       1.97047269       1.97057450      11.74737624       0.12765296      -0.08914169      -0.00024683
Ti       2.75839074       0.39403080      16.78572696      -0.00615188       0.01577475       0.01214512
O        0.00000902       1.97050521      11.92641829       0.16883817       0.06563872      -0.01870940
O        0.78837796       0.39409860      16.92509244       0.00252971      -0.00177226       0.00448529
O        1.97049401       3.94093312      11.84711638      -0.09512105      -0.10125981       0.00362011
O        2.75876140       2.36457436      16.92176990       0.01203919      -0.00250348      -0.00064792
O        1.97043419       1.97038596       9.92907156       0.01720659      -0.01339828       0.00691858
O        2.75873155       0.39404688      14.96974992      -0.06433543       0.07114680       0.00740066
10
Lattice="3.940949890606662 0.0 0.0 0.0 3.940949890606662 0.0 0.0 0.0 26.940967945119528" Properties=species:S:1:pos:R:3:forces:R:3 tau=tau26 tau_p=2 tau_q=6 stage=B constraint=xy_fixed_z_free force_label=raw_dft energy=-15499.359088318482 free_energy=-15499.359088318482 stress="0.010393544204057793 -3.672630460797807e-05 0.0018096886595581193 -3.672630460797807e-05 0.01089944905003269 -0.0012202314706000713 0.0018096886595581193 -0.0012202314706000713 0.00024790255610385197" pbc="T T T"
Sr       0.00003612       0.00009431      10.29412650       0.00010182       0.00039775       0.01143524
Sr       0.78809198       2.36455593      15.32844486      -0.16292438       0.05522627      -0.02183432
Ti       1.97047269       1.97057450      11.74736905       0.12776814      -0.08919183       0.00048697
Ti       2.75839074       0.39403080      16.78607434      -0.00615162       0.01582617       0.00855175
O        0.00000902       1.97050521      11.92588479       0.16885874       0.06563435      -0.01519599
O        0.78837796       0.39409860      16.92521981       0.00253331      -0.00177920       0.00356921
O        1.97049401       3.94093312      11.84721809      -0.09523572      -0.10136189       0.00510467
O        2.75876140       2.36457436      16.92175126       0.01205076      -0.00250888      -0.00107421
O        1.97043419       1.97038596       9.92927025       0.01725005      -0.01341242       0.00474497
O        2.75873155       0.39404688      14.96996101      -0.06425110       0.07116942       0.00421198
