10
Lattice="3.940949890606662 0.0 0.0 0.0 3.940949890606662 0.0 0.0 0.0 26.940967945119528" Properties=species:S:1:pos:R:3:forces:R:3 tau=tau37 tau_p=3 tau_q=7 stage=A constraint=rigid_scf force_label=raw_dft energy=-15497.667378624783 free_energy=-15497.667378624783 stress="0.013609850330101474 -0.0017821439311021356 0.008984172264726635 -0.0017821439311021356 0.013264623066786479 -0.008979581476650638 0.008984172264726635 -0.008979581476650638 -0.017583636488684697" pbc="T T T"
Sr       0.00003626       0.00009419      10.75260867       0.00130663      -0.00139791       0.52213629
Sr       1.18218684       2.75865074      14.64522241      -1.26531494       1.26209361       4.16702417
Ti       1.97047258       1.97057465      12.38212169       1.23581410      -1.23502966      -3.76045692
Ti       3.15248562       0.78812574      16.28444791      -0.06099917       0.06008797      -0.40828655
O        0.00000906       1.97050529      12.45001441       0.88790837       0.67650558      -0.88152252
O        1.18247295       0.78819352      16.39256827       0.01879734      -0.07373718      -0.13425889
O        1.97049386       3.94093294      12.44909065      -0.67652563      -0.88490172      -0.87436379
O        3.15285647       2.75866926      16.37955485       0.07673329      -0.01697159      -0.09660534
O        1.97043435       1.97038588      10.49176941       0.15287882      -0.15225713       0.39096812
O        3.15282651       0.78814190      14.44792112      -0.37059907       0.36560856       1.07536570
