10
Lattice="3.940949890606662 0.0 0.0 0.0 3.940949890606662 0.0 0.0 0.0 26.940967945119528" Properties=species:S:1:pos:R:3:forces:R:3 tau=tau70 tau_p=7 tau_q=0 stage=A constraint=rigid_scf force_label=raw_dft energy=-15498.679898027647 free_energy=-15498.679898027647 stress="0.015040339894582217 -0.0 -0.017649743836979058 -0.0 0.00663093429697044 0.0 -0.017649743836979058 0.0 -0.01793620901292129" pbc="T T T"
Sr       0.00003626       0.00009419      10.75260867      -0.00436830       0.00003291       0.24044725
Sr       2.75856679       3.94093570      14.64522241       0.85299690       0.00008228       2.98611161
Ti       1.97047258       1.97057465      12.38212169      -0.51556429      -0.00050805      -1.26203061
Ti       0.78791569       1.97041071      16.28444791       0.18921802      -0.00004397       0.14031487
O        0.00000906       1.97050529      12.45001441      -2.14004717      -0.00002237      -2.36174672
O        2.75885291       1.97047849      16.39256827      -0.01300310       0.00001157      -0.18963634
O        1.97049386       3.94093294      12.44909065      -0.09030820       0.00013061      -0.80187848
O        0.78828653       0.00000434      16.37955485       0.06649258       0.00004242      -0.03467904
O        1.97043435       1.97038588      10.49176941      -0.30903709       0.00019926       0.22191808
O        0.78825658       1.97042687      14.44792112       1.96362116       0.00007533       1.06117938
