10
Lattice="3.940949890606662 0.0 0.0 0.0 3.940949890606662 0.0 0.0 0.0 26.940967945119528" Properties=species:S:1:pos:R:3:forces:R:3 tau=tau54 tau_p=5 tau_q=4 stage=B constraint=xy_fixed_z_free force_label=raw_dft energy=-15499.170031106518 free_energy=-15499.170031106518 stress="0.010253984246547476 -0.0 -9.181576151994517e-07 -0.0 0.010305401072998646 0.0010916894044721481 -9.181576151994517e-07 0.0010916894044721481 -0.002681020236382399" pbc="T T T"
Sr       0.00003626       0.00009419      10.31310645      -0.00014655       0.00003060       0.03354595
Sr       1.97037682       1.57636577      15.33873028      -0.00020029      -0.11031807       0.01424340
Ti       1.97047258       1.97057465      11.74799093       0.00006993       0.08486903      -0.07371019
Ti       3.94067560       3.54679066      16.76766275       0.00075925      -0.00237801       0.03986778
O        0.00000906       1.97050529      11.89456432      -0.00002057      -0.06367286      -0.08296744
O        1.97066293       3.54685845      16.90103317      -0.00065357       0.00864636       0.09261885
O        1.97049386       3.94093294      11.91044911      -0.00003162       0.09849896      -0.09856453
O        0.00009655       1.57638429      16.90414061       0.00020672       0.00206485       0.08236812
O        1.97043435       1.97038588       9.93599971       0.00015375       0.01114033      -0.03150218
O        0.00006660       3.54680682      14.96164128      -0.00013653      -0.02888120       0.02410024
10
Lattice="3.940949890606662 0.0 0.0 0.0 3.940949890606662 0.0 0.0 0.0 26.940967945119528" Properties=species:S:1:pos:R:3:forces:R:3 tau=tau54 tau_p=5 tau_q=4 stage=B constraint=xy_fixed_z_free force_label=raw_dft energy=-15499.170853842706 free_energy=-15499.170853842706 stress="0.010217257941939499 -0.0 -9.181576151994517e-07 -0.0 0.010258575034623475 0.0010889349316265497 -9.181576151994517e-07 0.0010889349316265497 -0.0027186646986055766" pbc="T T T"
Sr       0.00003612       0.00009431      10.31379713      -0.00014064      -0.00001260       0.01812114
Sr       1.97037695       1.57636594      15.33902371      -0.00020003      -0.10991132       0.02050480
Ti       1.97047269       1.97057450      11.74647406       0.00008536       0.08464020      -0.06451541
Ti       3.94067571       3.54679074      16.76848342       0.00074408      -0.00237698       0.04704939
O        0.00000902       1.97050521      11.89285670      -0.00001646      -0.06352116      -0.07477976
O        1.97066294       3.54685853      16.90293940      -0.00064715       0.00860188       0.08220897
O        1.97049401       3.94093312      11.90842045      -0.00003291       0.09819609      -0.08932115
O        0.00009646       1.57638437      16.90583618       0.00020852       0.00205225       0.07296457
O        1.97043419       1.97038596       9.93535150       0.00015092       0.01113570      -0.03999557
O        0.00006661       3.54680681      14.96213742      -0.00015170      -0.02880433       0.02776329
10
Lattice="3.940949890606662 0.0 0.0 0.0 3.940949890606662 0.0 0.0 0.0 26.940967945119528" Properties=species:S:1:pos:R:3:forces:R:3 tau=tau54 tau_p=5 tau_q=4 stage=B constraint=xy_fixed_z_free force_label=raw_dft energy=-15499.171690456704 free_energy=-15499.171690456704 stress="0.010175940849255523 -0.0 -9.181576151994517e-07 -0.0 0.010203485577711507 0.0010861804587809513 -9.181576151994517e-07 0.0010861804587809513 -0.0027388641661399643" pbc="T T T"
Sr       0.00003612       0.00009431      10.31433773      -0.00014424      -0.00005708       0.00221989
Sr       1.97037695       1.57636594      15.33948160      -0.00020080      -0.10945186       0.02694388
Ti       1.97047269       1.97057450      11.74484595       0.00007842       0.08435892      -0.05978869
Ti       3.94067571       3.54679074      16.76958068       0.00073431      -0.00235076       0.05090013
O        0.00000902       1.97050521      11.89098558      -0.00001388      -0.06333604      -0.06615500
O        1.97066294       3.54685853      16.90500555      -0.00063712       0.00854455       0.07252336
O        1.97049401       3.94093312      11.90618896      -0.00002751       0.09784847      -0.07955019
O        0.00009646       1.57638437      16.90767105       0.00021392       0.00203529       0.06433363
O        1.97043419       1.97038596       9.93443423       0.00014758       0.01112876      -0.04512620
O        0.00006661       3.54680681      14.96278863      -0.00015041      -0.02872025       0.03369919
10
Lattice="3.940949890606662 0.0 0.0 0.0 3.940949890606662 0.0 0.0 0.0 26.940967945119528" Properties=species:S:1:pos:R:3:forces:R:3 tau=tau54 tau_p=5 tau_q=4 stage=B constraint=xy_fixed_z_free force_label=raw_dft energy=-15499.172861634666 free_energy=-15499.172861634666 stress="0.010134623756571547 -0.0 -9.181576151994517e-07 -0.0 0.010141969017493143 0.0010815896707049542 -9.181576151994517e-07 0.0010815896707049542 -0.002742536796600762" pbc="T T T"
Sr       0.00003612       0.00009431      10.31476181      -0.00014372      -0.00011107      -0.02066061
Sr       1.97037695       1.57636594      15.34040990      -0.00020260      -0.10872758       0.03513747
Ti       1.97047269       1.97057450      11.74232683       0.00007893       0.08389792      -0.05388852
Ti       3.94067571       3.54679074      16.77146826       0.00072377      -0.00230525       0.05382836
O        0.00000902       1.97050521      11.88819121      -0.00001466      -0.06302057      -0.05463774
O        1.97066294       3.54685853      16.90808864      -0.00062632       0.00845970       0.06044072
O        1.97049401       3.94093312      11.90284172      -0.00002725       0.09728052      -0.06621748
O        0.00009646       1.57638437      16.91040843       0.00021700       0.00201395       0.05376871
O        1.97043419       1.97038596       9.93280275       0.00014810       0.01111025      -0.05040982
O        0.00006661       3.54680681      14.96402041      -0.00015324      -0.02859787       0.04263892
10
Lattice="3.940949890606662 0.0 0.0 0.0 3.940949890606662 0.0 0.0 0.0 26.940967945119528" Properties=species:S:1:pos:R:3:forces:R:3 tau=tau54 tau_p=5 tau_q=4 stage=B constraint=xy_fixed_z_free force_label=raw_dft energy=-15499.174467786597 free_energy=-15499.174467786597 stress="0.010078616142044382 -0.0 -9.181576151994517e-07 -0.0 0.010057498516894794 0.001073326252168159 -9.181576151994517e-07 0.001073326252168159 -0.0027434549542159617" pbc="T T T"
Sr       0.00003612       0.00009431      10.31482490      -0.00014655      -0.00018975      -0.05126420
Sr       1.97037695       1.57636594      15.34211859      -0.00020517      -0.10758113       0.04550698
Ti       1.97047269       1.97057450      11.73842528       0.00008099       0.08310834      -0.04510923
Ti       3.94067571       3.54679074      16.77456283       0.00071348      -0.00216821       0.05688052
O        0.00000902       1.97050521      11.88400890      -0.00001594      -0.06249478      -0.03942658
O        1.97066294       3.54685853      16.91272600      -0.00061192       0.00832318       0.04465929
O        1.97049401       3.94093312      11.89782086      -0.00002674       0.09637215      -0.04818273
O        0.00009646       1.57638437      16.91453128       0.00022060       0.00196998       0.04023802
O        1.97043419       1.97038596       9.93005407       0.00014732       0.01106937      -0.05655219
O        0.00006661       3.54680681      14.96624724      -0.00015632      -0.02840940       0.05324986
10
Lattice="3.940949890606662 0.0 0.0 0.0 3.940949890606662 0.0 0.0 0.0 26.940967945119528" Properties=species:S:1:pos:R:3:forces:R:3 tau=tau54 tau_p=5 tau_q=4 stage=B constraint=xy_fixed_z_free force_label=raw_dft energy=-15499.176598437954 free_energy=-15499.176598437954 stress="0.010007918005674025 -0.0 -9.181576151994517e-07 -0.0 0.009942728814994861 0.001061390203170566 -9.181576151994517e-07 0.001061390203170566 -0.002733355220448768" pbc="T T T"
Sr       0.00003612       0.00009431      10.31409798      -0.00014861      -0.00029002      -0.09304591
Sr       1.97037695       1.57636594      15.34511849      -0.00020775      -0.10580115       0.05972493
Ti       1.97047269       1.97057450      11.73242169       0.00007610       0.08189941      -0.03326905
Ti       3.94067571       3.54679074      16.77955960       0.00069985      -0.00196252       0.06017718
O        0.00000902       1.97050521      11.87773697      -0.00001517      -0.06164785      -0.01941286
O        1.97066294       3.54685853      16.91971810      -0.00059264       0.00810875       0.02412029
O        1.97049401       3.94093312      11.89028958      -0.00002597       0.09494210      -0.02382976
O        0.00009646       1.57638437      16.92076402       0.00022806       0.00189773       0.02296252
O        1.97043419       1.97038596       9.92552390       0.00014758       0.01097527      -0.06358107
O        0.00006661       3.54680681      14.97008963      -0.00016147      -0.02812144       0.06615346
10
Lattice="3.940949890606662 0.0 0.0 0.0 3.940949890606662 0.0 0.0 0.0 26.940967945119528" Properties=species:S:1:pos:R:3:forces:R:3 tau=tau54 tau_p=5 tau_q=4 stage=B constraint=xy_fixed_z_free force_label=raw_dft energy=-15499.17931481435 free_energy=-15499.17931481435 stress="0.009919774874614876 -0.0 -9.181576151994517e-07 -0.0 0.009793069123717352 0.0010430270508665772 -9.181576151994517e-07 0.0010430270508665772 -0.002703974176762385" pbc="T T T"
Sr       0.00003612       0.00009431      10.31174606      -0.00015272      -0.00039826      -0.14794822
Sr       1.97037695       1.57636594      15.35028869      -0.00021289      -0.10307784       0.07760875
Ti       1.97047269       1.97057450      11.72318708       0.00008587       0.07973454      -0.01722716
Ti       3.94067571       3.54679074      16.78756608       0.00068031      -0.00145396       0.06356281
O        0.00000902       1.97050521      11.86831347      -0.00001903      -0.06028671       0.00649435
O        1.97066294       3.54685853      16.93028682      -0.00056873       0.00778659      -0.00233970
O        1.97049401       3.94093312      11.87899265      -0.00002571       0.09273609       0.00870473
O        0.00009646       1.57638437      16.93022013       0.00023526       0.00179386       0.00114671
O        1.97043419       1.97038596       9.91815338       0.00014630       0.01082897      -0.07146793
O        0.00006661       3.54680681      14.97656562      -0.00016866      -0.02766353       0.08146566
10
Lattice="3.940949890606662 0.0 0.0 0.0 3.940949890606662 0.0 0.0 0.0 26.940967945119528" Properties=species:S:1:pos:R:3:forces:R:3 tau=tau54 tau_p=5 tau_q=4 stage=B constraint=xy_fixed_z_free force_label=raw_dft energy=-15499.182615555213 free_energy=-15499.182615555213 stress="0.00981235043363654 -0.0 -9.181576151994517e-07 -0.0 0.009599337866910267 0.0010136460071801946 -9.181576151994517e-07 0.0010136460071801946 -0.002640621301313623" pbc="T T T"
Sr       0.00003612       0.00009431      10.30617162      -0.00015401      -0.00049622      -0.21837588
Sr       1.97037695       1.57636594      15.35910945      -0.00021443      -0.09898979       0.10079007
Ti       1.97047269       1.97057450      11.70896686       0.00008202       0.07668187       0.00462027
Ti       3.94067571       3.54679074      16.80038581       0.00064098      -0.00088600       0.06618482
O        0.00000902       1.97050521      11.85412229      -0.00001877      -0.05815064       0.03856912
O        1.97066294       3.54685853      16.94630713      -0.00053350       0.00727905      -0.03575299
O        1.97049401       3.94093312      11.86204725      -0.00002237       0.08930573       0.05089267
O        0.00009646       1.57638437      16.94462537       0.00024683       0.00166839      -0.02548683
O        1.97043419       1.97038596       9.90620016       0.00014707       0.01057623      -0.08024670
O        0.00006661       3.54680681      14.98738401      -0.00017406      -0.02698861       0.09880595
10
Lattice="3.940949890606662 0.0 0.0 0.0 3.940949890606662 0.0 0.0 0.0 26.940967945119528" Properties=species:S:1:pos:R:3:forces:R:3 tau=tau54 tau_p=5 tau_q=4 stage=B constraint=xy_fixed_z_free force_label=raw_dft energy=-15499.18657726059 free_energy=-15499.18657726059 stress="0.009714107568810198 -0.0 -9.181576151994517e-07 -0.0 0.009379898196877599 0.0009695744416506211 -9.181576151994517e-07 0.0009695744416506211 -0.002503815816648905" pbc="T T T"
Sr       0.00003612       0.00009431      10.29418014      -0.00015427      -0.00059675      -0.30172256
Sr       1.97037695       1.57636594      15.37424862      -0.00021700      -0.09281940       0.12778666
Ti       1.97047269       1.97057450      11.68702286       0.00008279       0.07289335       0.03225989
Ti       3.94067571       3.54679074      16.82099655       0.00059547      -0.00122230       0.06683171
O        0.00000902       1.97050521      11.83267355      -0.00002134      -0.05471076       0.07486127
O        1.97066294       3.54685853      16.97067097      -0.00048928       0.00659411      -0.07550327
O        1.97049401       3.94093312      11.83662916      -0.00002031       0.08408253       0.10220958
O        0.00009646       1.57638437      16.96669400       0.00026097       0.00154729      -0.05564201
O        1.97043419       1.97038596       9.88671897       0.00014501       0.01013220      -0.08729204
O        0.00006661       3.54680681      15.00548515      -0.00018229      -0.02590001       0.11621078
10
Lattice="3.940949890606662 0.0 0.0 0.0 3.940949890606662 0.0 0.0 0.0 26.940967945119528" Properties=species:S:1:pos:R:3:forces:R:3 tau=tau54 tau_p=5 tau_q=4 stage=B constraint=xy_fixed_z_free force_label=raw_dft energy=-15499.191810145763 free_energy=-15499.191810145763 stress="0.009687480997969415 -0.0 -9.181576151994517e-07 -0.0 0.0092100390380657 0.0009098941966626566 -9.181576151994517e-07 0.0009098941966626566 -0.0022485679996234573" pbc="T T T"
Sr       0.00003612       0.00009431      10.27133683      -0.00016069      -0.00071580      -0.37707388
Sr       1.97037695       1.57636594      15.39837797      -0.00021906      -0.08452553       0.15294773
Ti       1.97047269       1.97057450      11.65587876       0.00008382       0.06836280       0.06240453
Ti       3.94067571       3.54679074      16.85163886       0.00054379      -0.00252971       0.06568911
O        0.00000902       1.97050521      11.80285637      -0.00002134      -0.04976782       0.10238853
O        1.97066294       3.54685853      17.00470999      -0.00044274       0.00589708      -0.11319770
O        1.97049401       3.94093312      11.80177129      -0.00001646       0.07689141       0.14951608
O        0.00009646       1.57638437      16.99786968       0.00027511       0.00139251      -0.08171146
O        1.97043419       1.97038596       9.85736813       0.00014604       0.00933953      -0.08706141
O        0.00006661       3.54680681      15.03351209      -0.00018820      -0.02434449       0.12609847
10
Lattice="3.940949890606662 0.0 0.0 0.0 3.940949890606662 0.0 0.0 0.0 26.940967945119528" Properties=species:S:1:pos:R:3:forces:R:3 tau=tau54 tau_p=5 tau_q=4 stage=B constraint=xy_fixed_z_free force_label=raw_dft energy=-15499.19867394523 free_energy=-15499.19867394523 stress="0.009789396493256554 -0.0 -9.181576151994517e-07 -0.0 0.00917882167914892 0.0008447050059834956 -9.181576151994517e-07 0.0008447050059834956 -0.0018978317906172667" pbc="T T T"
Sr       0.00003612       0.00009431      10.23875112      -0.00016352      -0.00060832      -0.41058049
Sr       1.97037695       1.57636594      15.42888347      -0.00022086      -0.07575421       0.16818331
Ti       1.97047269       1.97057450      11.62054045       0.00008330       0.06186408       0.08379868
Ti       3.94067571       3.54679074      16.88809430       0.00051165      -0.00230602       0.05025607
O        0.00000902       1.97050521      11.76940243      -0.00002443      -0.04449577       0.10937139
O        1.97066294       3.54685853      17.04284298      -0.00041009       0.00506559      -0.13404009
O        1.97049401       3.94093312      11.76342764      -0.00001466       0.06924624       0.17564311
O        0.00009646       1.57638437      17.03327202       0.00028565       0.00120688      -0.09184135
O        1.97043419       1.97038596       9.82219258       0.00014604       0.00838077      -0.07628874
O        0.00006661       3.54680681      15.06791297      -0.00019309      -0.02259923       0.12549786
10
Lattice="3.940949890606662 0.0 0.0 0.0 3.940949890606662 0.0 0.0 0.0 26.940967945119528" Properties=species:S:1:pos:R:3:forces:R:3 tau=tau54 tau_p=5 tau_q=4 stage=B constraint=xy_fixed_z_free force_label=raw_dft energy=-15499.210192796136 free_energy=-15499.210192796136 stress="0.010125442180419553 -0.0 -9.181576151994517e-07 -0.0 0.00936061688695841 0.0007473802987723537 -9.181576151994517e-07 0.0007473802987723537 -0.0013166380201960137" pbc="T T T"
Sr       0.00003612       0.00009431      10.18123564      -0.00016121      -0.00038927      -0.39006926
Sr       1.97037695       1.57636594      15.47883624      -0.00021546      -0.06382404       0.17457739
Ti       1.97047269       1.97057450      11.56784457       0.00008433       0.05272278       0.09082396
Ti       3.94067571       3.54679074      16.94438259       0.00047643      -0.00173601       0.02642734
O        0.00000902       1.97050521      11.71962656      -0.00002185      -0.03735504       0.08937540
O        1.97066294       3.54685853      17.09918600      -0.00038361       0.00392993      -0.14064037
O        1.97049401       3.94093312      11.70772721      -0.00001568       0.05879187       0.17745471
O        0.00009646       1.57638437      17.08637599       0.00029156       0.00093640      -0.08578769
O        1.97043419       1.97038596       9.76735427       0.00014192       0.00704302      -0.04846787
O        0.00006661       3.54680681      15.12275089      -0.00019643      -0.02011940       0.10630637
10
Lattice="3.940949890606662 0.0 0.0 0.0 3.940949890606662 0.0 0.0 0.0 26.940967945119528" Properties=species:S:1:pos:R:3:forces:R:3 tau=tau54 tau_p=5 tau_q=4 stage=B constraint=xy_fixed_z_free force_label=raw_dft energy=-15499.224507344617 free_energy=-15499.224507344617 stress="0.010711226738916804 -0.0 -9.181576151994517e-07 -0.0 0.009798578069408549 0.0006307742816420234 -9.181576151994517e-07 0.0006307742816420234 -0.0005922116618036463" pbc="T T T"
Sr       0.00003612       0.00009431      10.09496242      -0.00012110      -0.00010413      -0.28681273
Sr       1.97037695       1.57636594      15.55078201      -0.00019000      -0.05002441       0.16490901
Ti       1.97047269       1.97057450      11.49763399       0.00007430       0.04162667       0.08124712
Ti       3.94067571       3.54679074      17.02121515       0.00036433      -0.00140459      -0.00739141
O        0.00000902       1.97050521      11.65289530      -0.00001311      -0.02919539       0.03332998
O        1.97066294       3.54685853      17.17344705      -0.00036947       0.00301565      -0.12137715
O        1.97049401       3.94093312      11.63517594      -0.00001671       0.04677557       0.14004259
O        0.00009646       1.57638437      17.15759931       0.00029851       0.00076233      -0.05496196
O        1.97043419       1.97038596       9.69215408       0.00015221       0.00571531      -0.01203148
O        0.00006661       3.54680681      15.19945471      -0.00017921      -0.01716700       0.06304602
10
Lattice="3.940949890606662 0.0 0.0 0.0 3.940949890606662 0.0 0.0 0.0 26.940967945119528" Properties=species:S:1:pos:R:3:forces:R:3 tau=tau54 tau_p=5 tau_q=4 stage=B constraint=xy_fixed_z_free force_label=raw_dft energy=-15499.235565098623 free_energy=-15499.235565098623 stress="0.011496251499912334 -0.0 -9.181576151994517e-07 -0.0 0.010491787068884135 0.0004985595850533022 -9.181576151994517e-07 0.0004985595850533022 0.00024055729518225634" pbc="T T T"
Sr       0.00003612       0.00009431       9.97634050      -0.00014244      -0.00000668      -0.08663898
Sr       1.97037695       1.57636594      15.64847020      -0.00018820      -0.03647444       0.11970696
Ti       1.97047269       1.97057450      11.40928573       0.00005939       0.03109595       0.04050336
Ti       3.94067571       3.54679074      17.11944561       0.00045868      -0.00094488      -0.04085843
O        0.00000902       1.97050521      11.56695289      -0.00001671      -0.02122189      -0.05242659
O        1.97066294       3.54685853      17.26599062      -0.00039878       0.00206485      -0.06882972
O        1.97049401       3.94093312      11.54529443      -0.00001748       0.03428386       0.06025123
O        0.00009646       1.57638437      17.24844296       0.00028385       0.00057927       0.00467478
O        1.97043419       1.97038596       9.59544903       0.00013987       0.00419578       0.02571952
O        0.00006661       3.54680681      15.29964799      -0.00017818      -0.01357234      -0.00210239
10
Lattice="3.940949890606662 0.0 0.0 0.0 3.940949890606662 0.0 0.0 0.0 26.940967945119528" Properties=species:S:1:pos:R:3:forces:R:3 tau=tau54 tau_p=5 tau_q=4 stage=B constraint=xy_fixed_z_free force_label=raw_dft energy=-15499.237038322944 free_energy=-15499.237038322944 stress="0.011627548038885856 -0.0 -9.181576151994517e-07 -0.0 0.010694699901843213 0.00045999696521492535 -9.181576151994517e-07 0.00045999696521492535 0.0004067438235333571" pbc="T T T"
Sr       0.00003612       0.00009431       9.93655514      -0.00013858       0.00005065      -0.00343525
Sr       1.97037695       1.57636594      15.68240686      -0.00018229      -0.03256585       0.08010760
Ti       1.97047269       1.97057450      11.38224737       0.00005965       0.02841172       0.01939460
Ti       3.94067571       3.54679074      17.14954830       0.00048620      -0.00145113      -0.04169764
O        0.00000902       1.97050521      11.53842309      -0.00001851      -0.01915755      -0.07369193
O        1.97066294       3.54685853      17.29362672      -0.00042243       0.00193116      -0.04106437
O        1.97049401       3.94093312      11.51833573      -0.00002211       0.03114326       0.02883389
O        0.00009646       1.57638437      17.27739146       0.00027022       0.00052733       0.02703104
O        1.97043419       1.97038596       9.56542889       0.00014115       0.00383531       0.02779774
O        0.00006661       3.54680681      15.33135640      -0.00017329      -0.01272516      -0.02327568
10
Lattice="3.940949890606662 0.0 0.0 0.0 3.940949890606662 0.0 0.0 0.0 26.940967945119528" Properties=species:S:1:pos:R:3:forces:R:3 tau=tau54 tau_p=5 tau_q=4 stage=B constraint=xy_fixed_z_free force_label=raw_dft energy=-15499.237564591107 free_energy=-15499.237564591107 stress="0.011510942021755526 -0.0 -9.181576151994517e-07 -0.0 0.010709390423686405 0.0004590788075997259 -9.181576151994517e-07 0.0004590788075997259 0.0003443091056997944" pbc="T T T"
Sr       0.00003612       0.00009431       9.93306775      -0.00013833       0.00007148       0.01981138
Sr       1.97037695       1.57636594      15.68680341      -0.00018049      -0.03238767       0.04859591
Ti       1.97047269       1.97057450      11.38256055       0.00005888       0.02823894       0.00567005
Ti       3.94067571       3.54679074      17.14922831       0.00051165      -0.00143673      -0.02777023
O        0.00000902       1.97050521      11.53589952      -0.00001928      -0.01897397      -0.06659209
O        1.97066294       3.54685853      17.29241280      -0.00044120       0.00192190      -0.02738636
O        1.97049401       3.94093312      11.51943141      -0.00002237       0.03104710       0.02008289
O        0.00009646       1.57638437      17.27856807       0.00026174       0.00052888       0.03123248
O        1.97043419       1.97038596       9.56520583       0.00014090       0.00380343       0.02013225
O        0.00006661       3.54680681      15.33214232      -0.00017175      -0.01281361      -0.02377653
10
Lattice="3.940949890606662 0.0 0.0 0.0 3.940949890606662 0.0 0.0 0.0 26.940967945119528" Properties=species:S:1:pos:R:3:forces:R:3 tau=tau54 tau_p=5 tau_q=4 stage=B constraint=xy_fixed_z_free force_label=raw_dft energy=-15499.237916978529 free_energy=-15499.237916978529 stress="0.011346591808634825 -0.0 -9.181576151994517e-07 -0.0 0.01068276385284562 0.0004636695956757231 -9.181576151994517e-07 0.0004636695956757231 0.00025249334417984924" pbc="T T T"
Sr       0.00003612       0.00009431       9.93538872      -0.00013678       0.00005862       0.02710020
Sr       1.97037695       1.57636594      15.68661662      -0.00017946      -0.03270263       0.02264448
Ti       1.97047269       1.97057450      11.38625085       0.00005656       0.02834461      -0.00327019
Ti       3.94067571       3.54679074      17.14495712       0.00052939      -0.00128504      -0.01544899
O        0.00000902       1.97050521      11.53670044      -0.00002005      -0.01904468      -0.05372603
O        1.97066294       3.54685853      17.28757659      -0.00045380       0.00193090      -0.01818593
O        1.97049401       3.94093312      11.52405287      -0.00002263       0.03135717       0.01687081
O        0.00009646       1.57638437      17.27624598       0.00025480       0.00052888       0.03031022
O        1.97043419       1.97038596       9.56897616       0.00014218       0.00380472       0.01115293
O        0.00006661       3.54680681      15.32855459      -0.00016995      -0.01299307      -0.01744751
10
Lattice="3.940949890606662 0.0 0.0 0.0 3.940949890606662 0.0 0.0 0.0 26.940967945119528" Properties=species:S:1:pos:R:3:forces:R:3 tau=tau54 tau_p=5 tau_q=4 stage=B constraint=xy_fixed_z_free force_label=raw_dft energy=-15499.238218480661 free_energy=-15499.238218480661 stress="0.011072980839305389 -0.0 -9.181576151994517e-07 -0.0 0.01063226518400965 0.0004700966989821193 -9.181576151994517e-07 0.0004700966989821193 0.00011109707143913366" pbc="T T T"
Sr       0.00003612       0.00009431       9.94044435      -0.00013755       0.00007405       0.02566732
Sr       1.97037695       1.57636594      15.68540207      -0.00017895      -0.03320323      -0.01016614
Ti       1.97047269       1.97057450      11.39154867       0.00006222       0.02850428      -0.01231404
Ti       3.94067571       3.54679074      17.13843093       0.00054739      -0.00126550       0.00190056
O        0.00000902       1.97050521      11.53753262      -0.00002211      -0.01915009      -0.02971475
O        1.97066294       3.54685853      17.28032228      -0.00046948       0.00196381      -0.00777656
O        1.97049401       3.94093312      11.53103875      -0.00002263       0.03191279       0.01518596
O        0.00009646       1.57638437      17.27308795       0.00024554       0.00056693       0.02381201
O        1.97043419       1.97038596       9.57481687       0.00014372       0.00384586      -0.00255208
O        0.00006661       3.54680681      15.32269548      -0.00016815      -0.01324889      -0.00404255
10
Lattice="3.940949890606662 0.0 0.0 0.0 3.940949890606662 0.0 0.0 0.0 26.940967945119528" Properties=species:S:1:pos:R:3:forces:R:3 tau=tau54 tau_p=5 tau_q=4 stage=B constraint=xy_fixed_z_free force_label=raw_dft energy=-15499.238321747862 free_energy=-15499.238321747862 stress="0.010929748251334272 -0.0 -9.181576151994517e-07 -0.0 0.01061665650455126 0.0004691785413669198 -9.181576151994517e-07 0.0004691785413669198 5.968024498796436e-05" pbc="T T T"
Sr       0.00003612       0.00009431       9.94064274      -0.00013807       0.00006428       0.01823889
Sr       1.97037695       1.57636594      15.68706540      -0.00018152      -0.03311838      -0.02073826
Ti       1.97047269       1.97057450      11.39091863       0.00006325       0.02839809      -0.01251253
Ti       3.94067571       3.54679074      17.13838729       0.00055690      -0.00126781       0.00828358
O        0.00000902       1.97050521      11.53460457      -0.00002443      -0.01902976      -0.01554900
O        1.97066294       3.54685853      17.27981601      -0.00047437       0.00196149      -0.00468841
O        1.97049401       3.94093312      11.53158604      -0.00002288       0.03191330       0.01471854
O        0.00009646       1.57638437      17.27496890       0.00024323       0.00056924       0.01680627
O        1.97043419       1.97038596       9.57462304       0.00014552       0.00382734      -0.00805115
O        0.00006661       3.54680681      15.32270735      -0.00016789      -0.01331780       0.00349207
