10
Lattice="3.940949890606662 0.0 0.0 0.0 3.940949890606662 0.0 0.0 0.0 26.940967945119528" Properties=species:S:1:pos:R:3:forces:R:3 tau=tau82 tau_p=8 tau_q=2 stage=A constraint=rigid_scf force_label=raw_dft energy=-15499.052372484104 free_energy=-15499.052372484104 stress="0.010949029561253461 -0.0016471747616678164 -0.010561567047639293 -0.0016471747616678164 0.01063410149924005 0.010553303629102498 -0.010561567047639293 0.010553303629102498 -0.00949374974116233" pbc="T T T"
Sr       0.00003626       0.00009419      10.75260867      -0.00043297       0.00030493       0.29765121
Sr       3.15266178       0.78817579      14.64522241       0.86086010      -0.86055903       2.35291369
Ti       1.97047258       1.97057465      12.38212169      -0.88837219       0.88847864      -1.36701107
Ti       1.18201068       2.75860069      16.28444791       0.09342438      -0.09260882      -0.11050910
O        0.00000906       1.97050529      12.45001441      -1.23133241      -0.52355682      -0.83295283
O        3.15294790       2.75866847      16.39256827      -0.00228057       0.00739064      -0.08664232
O        1.97049386       3.94093294      12.44909065       0.52362547       1.22758889      -0.82775844
O        1.18238152       0.78819431      16.37955485      -0.00742560       0.00025917      -0.04883399
O        1.97043435       1.97038588      10.49176941      -0.21366664       0.21370984       0.25199948
O        1.18235157       2.75861684      14.44792112       0.86559993      -0.86100743       0.37114363
