10
Lattice="3.940949890606662 0.0 0.0 0.0 3.940949890606662 0.0 0.0 0.0 26.940967945119528" Properties=species:S:1:pos:R:3:forces:R:3 tau=tau01 tau_p=0 tau_q=1 stage=B constraint=xy_fixed_z_free force_label=raw_dft energy=-15500.494350246607 free_energy=-15500.494350246607 stress="0.00905762487394259 0.0 -9.181576151994517e-07 0.0 0.009273391913514463 0.007044105223810193 -9.181576151994517e-07 0.007044105223810193 -0.0008318507993707032" pbc="T T T"
Sr       0.00003626       0.00009419      10.75260867      -0.00007379      -0.00267266       0.05649588
Sr       3.94085176       0.39408080      14.64522241      -0.00007585      -0.30445024       0.34436584
Ti       1.97047258       1.97057465      12.38212169      -0.00000668       0.24056964      -0.04297265
Ti       1.97020066       2.36450570      16.28444791      -0.00085823      -0.04953950      -0.00009205
O        0.00000906       1.97050529      12.45001441      -0.00002700      -0.22479695      -0.04004596
O        0.00018798       2.36457348      16.39256827       0.00058467      -0.02829936      -0.02630264
O        1.97049386       3.94093294      12.44909065       0.00001054       0.98409256      -0.29379430
O        1.97057150       0.39409932      16.37955485       0.00043323      -0.01143961       0.00891170
O        1.97043435       1.97038588      10.49176941       0.00011467       0.17919818       0.03955051
O        1.97054155       2.36452185      14.44792112      -0.00010207      -0.78266206      -0.04611633
10
Lattice="3.940949890606662 0.0 0.0 0.0 3.940949890606662 0.0 0.0 0.0 26.940967945119528" Properties=species:S:1:pos:R:3:forces:R:3 tau=tau01 tau_p=0 tau_q=1 stage=B constraint=xy_fixed_z_free force_label=raw_dft energy=-15500.4983731776 free_energy=-15500.4983731776 stress="0.008872157035672302 0.0 -9.181576151994517e-07 0.0 0.009078742499092178 0.006947698674214251 -9.181576151994517e-07 0.006947698674214251 -0.0008750042072850775" pbc="T T T"
Sr       0.00003612       0.00009431      10.75377150      -0.00007713      -0.00263975       0.04537611
Sr       3.94085191       0.39408097      14.65231034      -0.00006942      -0.29529094       0.27660211
Ti       1.97047269       1.97057450      12.38123751      -0.00000437       0.23480008      -0.07843433
Ti       1.97020076       2.36450576      16.28444602      -0.00082867      -0.04940246      -0.03902806
O        0.00000902       1.97050521      12.44919025      -0.00002674      -0.22911563      -0.01637330
O        0.00018798       2.36457356      16.39202698       0.00056359      -0.02815229      -0.01084003
O        1.97049401       3.94093312      12.44304385       0.00001286       0.97127201      -0.24698660
O        1.97057142       0.39409940      16.37973823       0.00042038      -0.01114470       0.02185541
O        1.97043419       1.97038596      10.49258340       0.00011673       0.17962164       0.02219479
O        1.97054157       2.36452183      14.44697190      -0.00010722      -0.76994744       0.02563390
10
Lattice="3.940949890606662 0.0 0.0 0.0 3.940949890606662 0.0 0.0 0.0 26.940967945119528" Properties=species:S:1:pos:R:3:forces:R:3 tau=tau01 tau_p=0 tau_q=1 stage=B constraint=xy_fixed_z_free force_label=raw_dft energy=-15500.502117872189 free_energy=-15500.502117872189 stress="0.00863986315902684 0.0 -0.0 0.0 0.008835430731064324 0.0068402742332359144 -0.0 0.0068402742332359144 -0.0010696536217073612" pbc="T T T"
Sr       0.00003612       0.00009431      10.75505050      -0.00007533      -0.00259784       0.03399950
Sr       3.94085191       0.39408097      14.66010675      -0.00007713      -0.28537265       0.21699648
Ti       1.97047269       1.97057450      12.37927530       0.00000026       0.23072797      -0.08483303
Ti       1.97020076       2.36450576      16.28356644      -0.00078213      -0.04899880      -0.02860815
O        0.00000902       1.97050521      12.44863936      -0.00003008      -0.23261464       0.00056101
O        0.00018798       2.36457356      16.39166321       0.00054019      -0.02801963      -0.00149535
O        1.97049401       3.94093312      12.43614448       0.00001311       0.95436830      -0.20024420
O        1.97057142       0.39409940      16.38027107       0.00040906      -0.01071430       0.02776431
O        1.97043419       1.97038596      10.49326318       0.00011030       0.17937738      -0.00493883
O        1.97054157       2.36452183      14.44733968      -0.00010824      -0.75615553       0.04079775
10
Lattice="3.940949890606662 0.0 0.0 0.0 3.940949890606662 0.0 0.0 0.0 26.940967945119528" Properties=species:S:1:pos:R:3:forces:R:3 tau=tau01 tau_p=0 tau_q=1 stage=B constraint=xy_fixed_z_free force_label=raw_dft energy=-15500.506382984495 free_energy=-15500.506382984495 stress="0.008319426151322232 0.0 -0.0 0.0 0.008498466886286124 0.00668143296580641 -0.0 0.00668143296580641 -0.001319392493041612" pbc="T T T"
Sr       0.00003612       0.00009431      10.75690954      -0.00007790      -0.00257367       0.01476147
Sr       3.94085191       0.39408097      14.67180136      -0.00007585      -0.27072174       0.13441239
Ti       1.97047269       1.97057450      12.37558030       0.00000231       0.22600640      -0.07998933
Ti       1.97020076       2.36450576      16.28242403      -0.00072762      -0.04846247      -0.00439839
O        0.00000902       1.97050521      12.44827038      -0.00003060      -0.23711819       0.01775090
O        0.00018798       2.36457356      16.39135134       0.00049674      -0.02782088       0.01235698
O        1.97049401       3.94093312      12.42558317       0.00001646       0.92814227      -0.13425812
O        1.97057142       0.39409940      16.38142683       0.00039261      -0.01002756       0.03588617
O        1.97043419       1.97038596      10.49347639       0.00010979       0.17847981      -0.04074221
O        1.97054157       2.36452183      14.44849663      -0.00010593      -0.73590398       0.04422015
10
Lattice="3.940949890606662 0.0 0.0 0.0 3.940949890606662 0.0 0.0 0.0 26.940967945119528" Properties=species:S:1:pos:R:3:forces:R:3 tau=tau01 tau_p=0 tau_q=1 stage=B constraint=xy_fixed_z_free force_label=raw_dft energy=-15500.509856109476 free_energy=-15500.509856109476 stress="0.007849329452340112 0.0 -0.0 0.0 0.008001743616463221 0.00644638461631535 -0.0 0.00644638461631535 -0.0016067758265990403" pbc="T T T"
Sr       0.00003612       0.00009431      10.75941733      -0.00008228      -0.00259424      -0.01904288
Sr       3.94085191       0.39408097      14.68934327      -0.00007610      -0.24933453       0.01733952
Ti       1.97047269       1.97057450      12.36900292       0.00000514       0.22089581      -0.05770173
Ti       1.97020076       2.36450576      16.28142722      -0.00063789      -0.04778267       0.02994230
O        0.00000902       1.97050521      12.44841445      -0.00003060      -0.24295125       0.03095685
O        0.00018798       2.36457356      16.39143218       0.00043272      -0.02751312       0.03396864
O        1.97049401       3.94093312      12.40933201       0.00002134       0.88830200      -0.04124127
O        1.97057142       0.39409940      16.38392914       0.00036664      -0.00898781       0.04756644
O        1.97043419       1.97038596      10.49218853       0.00010799       0.17636174      -0.07957616
O        1.97054157       2.36452183      14.45083291      -0.00010722      -0.70639594       0.03778827
10
Lattice="3.940949890606662 0.0 0.0 0.0 3.940949890606662 0.0 0.0 0.0 26.940967945119528" Properties=species:S:1:pos:R:3:forces:R:3 tau=tau01 tau_p=0 tau_q=1 stage=B constraint=xy_fixed_z_free force_label=raw_dft energy=-15500.510592041353 free_energy=-15500.510592041353 stress="0.007692324500141006 0.0 -0.0 0.0 0.007832802615266522 0.0063435509634130124 -0.0 0.0063435509634130124 -0.001575558467682259" pbc="T T T"
Sr       0.00003612       0.00009431      10.75995817      -0.00008356      -0.00262870      -0.03750237
Sr       3.94085191       0.39408097      14.69715198      -0.00007688      -0.23982325      -0.02801088
Ti       1.97047269       1.97057450      12.36504892       0.00000668       0.22044896      -0.03921267
Ti       1.97020076       2.36450576      16.28192057      -0.00060164      -0.04772559       0.03937490
O        0.00000902       1.97050521      12.44913079      -0.00003008      -0.24506675       0.02512353
O        0.00018798       2.36457356      16.39229099       0.00040701      -0.02735320       0.04273765
O        1.97049401       3.94093312      12.40150727       0.00002185       0.86942702      -0.00462284
O        1.97057142       0.39409940      16.38612064       0.00035584      -0.00848078       0.05062476
O        1.97043419       1.97038596      10.48974387       0.00010644       0.17464475      -0.07663096
O        1.97054157       2.36452183      14.45244678      -0.00010593      -0.69344272       0.02811887
10
Lattice="3.940949890606662 0.0 0.0 0.0 3.940949890606662 0.0 0.0 0.0 26.940967945119528" Properties=species:S:1:pos:R:3:forces:R:3 tau=tau01 tau_p=0 tau_q=1 stage=B constraint=xy_fixed_z_free force_label=raw_dft energy=-15500.511093275043 free_energy=-15500.511093275043 stress="0.007705178706753798 0.0 -0.0 0.0 0.007840147876188117 0.006293052294577042 -0.0 0.006293052294577042 -0.0013487735367279945" pbc="T T T"
Sr       0.00003612       0.00009431      10.75923420      -0.00008382      -0.00263512      -0.04755255
Sr       3.94085191       0.39408097      14.70083680      -0.00007765      -0.23502660      -0.04114382
Ti       1.97047269       1.97057450      12.36197875       0.00000566       0.22227213      -0.02112804
Ti       1.97020076       2.36450576      16.28333220      -0.00059572      -0.04796573       0.03708559
O        0.00000902       1.97050521      12.45007957      -0.00002648      -0.24574938       0.00976479
O        0.00018798       2.36457356      16.39388536       0.00040135      -0.02723210       0.04406125
O        1.97049401       3.94093312      12.39698417       0.00002314       0.85863378       0.00766163
O        1.97057142       0.39409940      16.38865356       0.00035404      -0.00817302       0.04783975
O        1.97043419       1.97038596      10.48646953       0.00010542       0.17297071      -0.05433564
O        1.97054157       2.36452183      14.45386583      -0.00010567      -0.68709492       0.01774678
10
Lattice="3.940949890606662 0.0 0.0 0.0 3.940949890606662 0.0 0.0 0.0 26.940967945119528" Properties=species:S:1:pos:R:3:forces:R:3 tau=tau01 tau_p=0 tau_q=1 stage=B constraint=xy_fixed_z_free force_label=raw_dft energy=-15500.511694646626 free_energy=-15500.511694646626 stress="0.00785208392518571 0.0 -0.0 0.0 0.007981544148928833 0.006260916778045061 -0.0 0.006260916778045061 -0.0008970399900498642" pbc="T T T"
Sr       0.00003612       0.00009431      10.75692623      -0.00008408      -0.00260581      -0.05203090
Sr       3.94085191       0.39408097      14.70303475      -0.00008125      -0.23162040      -0.03644230
Ti       1.97047269       1.97057450      12.35839699       0.00000283       0.22638820       0.00188308
Ti       1.97020076       2.36450576      16.28603195      -0.00059444      -0.04855605       0.02676261
O        0.00000902       1.97050521      12.45127931      -0.00002494      -0.24580235      -0.01627174
O        0.00018798       2.36457356      16.39689480       0.00040418      -0.02707577       0.03887122
O        1.97049401       3.94093312      12.39287019       0.00002340       0.84904691       0.00887853
O        1.97057142       0.39409940      16.39269046       0.00035713      -0.00787657       0.03813923
O        1.97043419       1.97038596      10.48149412       0.00010516       0.17074593      -0.01445654
O        1.97054157       2.36452183      14.45570116      -0.00010824      -0.68264409       0.00466681
10
Lattice="3.940949890606662 0.0 0.0 0.0 3.940949890606662 0.0 0.0 0.0 26.940967945119528" Properties=species:S:1:pos:R:3:forces:R:3 tau=tau01 tau_p=0 tau_q=1 stage=B constraint=xy_fixed_z_free force_label=raw_dft energy=-15500.51213710373 free_energy=-15500.51213710373 stress="0.00812110410643915 0.0 -0.0 0.0 0.008251482487797474 0.006256325989969063 -0.0 0.006256325989969063 -0.000323191480550207" pbc="T T T"
Sr       0.00003612       0.00009431      10.75294272      -0.00008330      -0.00251582      -0.04425254
Sr       3.94085191       0.39408097      14.70291210      -0.00008356      -0.23070046      -0.01342681
Ti       1.97047269       1.97057450      12.35544977       0.00000180       0.23182892       0.02104062
Ti       1.97020076       2.36450576      16.28951200      -0.00061912      -0.04931839       0.01122878
O        0.00000902       1.97050521      12.45187647      -0.00002314      -0.24529198      -0.04210079
O        0.00018798       2.36457356      16.40097243       0.00042192      -0.02689194       0.02567606
O        1.97049401       3.94093312      12.39023114       0.00002391       0.84332518      -0.00026971
O        1.97057142       0.39409940      16.39757219       0.00036613      -0.00766934       0.02148182
O        1.97043419       1.97038596      10.47637941       0.00010516       0.16867697       0.02633247
O        1.97054157       2.36452183      14.45747173      -0.00010953      -0.68144312      -0.00571016
10
Lattice="3.940949890606662 0.0 0.0 0.0 3.940949890606662 0.0 0.0 0.0 26.940967945119528" Properties=species:S:1:pos:R:3:forces:R:3 tau=tau01 tau_p=0 tau_q=1 stage=B constraint=xy_fixed_z_free force_label=raw_dft energy=-15500.512323773823 free_energy=-15500.512323773823 stress="0.008284536161944652 0.0 -9.181576151994517e-07 0.0 0.008420423488994171 0.006268262038966656 -9.181576151994517e-07 0.006268262038966656 -6.977997875515833e-05" pbc="T T T"
Sr       0.00003612       0.00009431      10.75017788      -0.00008330      -0.00240964      -0.03075271
Sr       3.94085191       0.39408097      14.70168099      -0.00008639      -0.23167388       0.00333909
Ti       1.97047269       1.97057450      12.35501554       0.00000309       0.23433420       0.02054491
Ti       1.97020076       2.36450576      16.29119522      -0.00062683      -0.04964877       0.00459790
O        0.00000902       1.97050521      12.45112894      -0.00002468      -0.24498859      -0.04534115
O        0.00018798       2.36457356      16.40322702       0.00043323      -0.02676441       0.01524844
O        1.97049401       3.94093312      12.38995851       0.00002263       0.84322979      -0.00599736
O        1.97057142       0.39409940      16.39993654       0.00036921      -0.00763695       0.01069502
O        1.97043419       1.97038596      10.47496172       0.00010362       0.16819308       0.03312481
O        1.97054157       2.36452183      14.45803760      -0.00011081      -0.68263483      -0.00545897
10
Lattice="3.940949890606662 0.0 0.0 0.0 3.940949890606662 0.0 0.0 0.0 26.940967945119528" Properties=species:S:1:pos:R:3:forces:R:3 tau=tau01 tau_p=0 tau_q=1 stage=B constraint=xy_fixed_z_free force_label=raw_dft energy=-15500.51248731424 free_energy=-15500.51248731424 stress="0.008426850592300568 0.0 -9.181576151994517e-07 0.0 0.00857467396834768 0.00627927993034905 -9.181576151994517e-07 0.00627927993034905 0.00010926075620873476" pbc="T T T"
Sr       0.00003612       0.00009431      10.74713656      -0.00008202      -0.00226668      -0.01213021
Sr       3.94085191       0.39408097      14.70060416      -0.00008562      -0.23260565       0.01561611
Ti       1.97047269       1.97057450      12.35522207      -0.00000026       0.23610466       0.01072484
Ti       1.97020076       2.36450576      16.29263005      -0.00064200      -0.04985729       0.00096159
O        0.00000902       1.97050521      12.44930221      -0.00002545      -0.24500042      -0.03699920
O        0.00018798       2.36457356      16.40543490       0.00044686      -0.02658315       0.00432228
O        1.97049401       3.94093312      12.38977158       0.00002263       0.84348407      -0.00636528
O        1.97057142       0.39409940      16.40208030       0.00037410      -0.00761304       0.00021932
O        1.97043419       1.97038596      10.47470750       0.00010516       0.16811775       0.02400485
O        1.97054157       2.36452183      14.45843065      -0.00011287      -0.68378051      -0.00035456
10
Lattice="3.940949890606662 0.0 0.0 0.0 3.940949890606662 0.0 0.0 0.0 26.940967945119528" Properties=species:S:1:pos:R:3:forces:R:3 tau=tau01 tau_p=0 tau_q=1 stage=B constraint=xy_fixed_z_free force_label=raw_dft energy=-15500.512574934894 free_energy=-15500.512574934894 stress="0.008485612679673333 0.0 -9.181576151994517e-07 0.0 0.00864353578948764 0.006275607299888252 -9.181576151994517e-07 0.006275607299888252 0.00016802284358149967" pbc="T T T"
Sr       0.00003612       0.00009431      10.74495717      -0.00008176      -0.00214250       0.00247494
Sr       3.94085191       0.39408097      14.70074795      -0.00008767      -0.23227757       0.01625683
Ti       1.97047269       1.97057450      12.35547168       0.00000051       0.23665436      -0.00126833
Ti       1.97020076       2.36450576      16.29349566      -0.00064483      -0.04991951       0.00064458
O        0.00000902       1.97050521      12.44710764      -0.00002777      -0.24540023      -0.02201096
O        0.00018798       2.36457356      16.40693804       0.00045149      -0.02639597      -0.00210368
O        1.97049401       3.94093312      12.38914774       0.00002211       0.84238801       0.00012084
O        1.97057142       0.39409940      16.40347383       0.00037564      -0.00756676      -0.00552453
O        1.97043419       1.97038596      10.47519954       0.00010696       0.16817509       0.00620536
O        1.97054157       2.36452183      14.45878072      -0.00011493      -0.68351466       0.00520494
