10
Lattice="3.940949890606662 0.0 0.0 0.0 3.940949890606662 0.0 0.0 0.0 26.940967945119528" Properties=species:S:1:pos:R:3:forces:R:3 tau=tau85 tau_p=8 tau_q=5 stage=B constraint=xy_fixed_z_free force_label=raw_dft energy=-15499.296366758957 free_energy=-15499.296366758957 stress="0.013045183396753809 0.0 -0.00236150138629299 0.0 0.011795570882467356 1.8363152303989035e-06 -0.00236150138629299 1.8363152303989035e-06 -0.0006023113955708403" pbc="T T T"
Sr       0.00003626       0.00009419      10.34187617      -0.00060652      -0.00005091       0.29190840
Sr       3.15266178       1.97046076      15.22496412       0.25760191      -0.00011776       0.25353545
Ti       1.97047258       1.97057465      11.84412095      -0.16847308       0.00003342      -0.16538184
Ti       1.18201068       3.94088565      16.71930690       0.00514401       0.00008922      -0.14305412
O        0.00000906       1.97050529      12.07280402      -0.23831864      -0.00019386      -0.21141179
O        3.15294790       0.00000355      16.83803984      -0.00507047      -0.00000668       0.09666345
O        1.97049386       3.94093294      11.87653526       0.11329875      -0.00013267       0.10959893
O        1.18238152       1.97047928      16.83221078      -0.02127254      -0.00007405       0.08793199
O        1.97043435       1.97038588      10.02048816      -0.01974376       0.00037127      -0.14503927
O        1.18235157       3.94090181      14.90497279       0.07744060       0.00008202      -0.17475120
10
Lattice="3.940949890606662 0.0 0.0 0.0 3.940949890606662 0.0 0.0 0.0 26.940967945119528" Properties=species:S:1:pos:R:3:forces:R:3 tau=tau85 tau_p=8 tau_q=5 stage=B constraint=xy_fixed_z_free force_label=raw_dft energy=-15499.30240278813 free_energy=-15499.30240278813 stress="0.012665984301676435 0.0 -0.002324775081685012 0.0 0.011579803842895484 1.8363152303989035e-06 -0.002324775081685012 1.8363152303989035e-06 -0.0005407948353524771" pbc="T T T"
Sr       0.00003612       0.00009431      10.34788427      -0.00037435      -0.00006222       0.23411591
Sr       3.15266193       1.97046093      15.23018254       0.25298781      -0.00012470       0.20649224
Ti       1.97047269       1.97057450      11.84071728      -0.16634626       0.00001363      -0.14853777
Ti       1.18201077       3.94088573      16.71636278       0.00474780       0.00010490      -0.11185919
O        0.00000902       1.97050521      12.06845269      -0.23580538      -0.00019180      -0.20301379
O        3.15294791       0.00000361      16.84002942      -0.00488895       0.00000206       0.07397475
O        1.97049401       3.94093312      11.87879119       0.11410247      -0.00012033       0.10141125
O        1.18238144       1.97047936      16.83402062      -0.02076551      -0.00006865       0.06725055
O        1.97043419       1.97038596      10.01750304      -0.01970648       0.00037050      -0.10202240
O        1.18235158       3.94090180      14.90137613       0.07604886       0.00007636      -0.11781180
10
Lattice="3.940949890606662 0.0 0.0 0.0 3.940949890606662 0.0 0.0 0.0 26.940967945119528" Properties=species:S:1:pos:R:3:forces:R:3 tau=tau85 tau_p=8 tau_q=5 stage=B constraint=xy_fixed_z_free force_label=raw_dft energy=-15499.30783486063 free_energy=-15499.30783486063 stress="0.012209659966922307 -0.0 -0.002280703516155438 -0.0 0.011323637868254837 1.8363152303989035e-06 -0.002280703516155438 1.8363152303989035e-06 -0.0005692577214236601" pbc="T T T"
Sr       0.00003612       0.00009431      10.35449305      -0.00008125      -0.00005888       0.17273185
Sr       3.15266193       1.97046093      15.23600604       0.24760083      -0.00012290       0.15618989
Ti       1.97047269       1.97057450      11.83655198      -0.16392557       0.00000643      -0.11754724
Ti       1.18201077       3.94088573      16.71320014       0.00434876       0.00010413      -0.07017389
O        0.00000902       1.97050521      12.06278022      -0.23248352      -0.00018718      -0.19134561
O        3.15294791       0.00000361      16.84212382      -0.00471489      -0.00000591       0.05082762
O        1.97049401       3.94093312      11.88163034       0.11499619      -0.00011261       0.08975104
O        1.18238144       1.97047936      16.83592472      -0.02018984      -0.00007585       0.04597750
O        1.97043419       1.97038596      10.01459815      -0.01968745       0.00037924      -0.07095705
O        1.18235158       3.94090180      14.89801152       0.07413673       0.00007353      -0.06545386
10
Lattice="3.940949890606662 0.0 0.0 0.0 3.940949890606662 0.0 0.0 0.0 26.940967945119528" Properties=species:S:1:pos:R:3:forces:R:3 tau=tau85 tau_p=8 tau_q=5 stage=B constraint=xy_fixed_z_free force_label=raw_dft energy=-15499.313574421774 free_energy=-15499.313574421774 stress="0.011466870456225953 -0.0 -0.002211841695015479 -0.0 0.010914139571875883 1.8363152303989035e-06 -0.002211841695015479 1.8363152303989035e-06 -0.000693208999475586" pbc="T T T"
Sr       0.00003612       0.00009431      10.36422983       0.00030673      -0.00006479       0.08119467
Sr       3.15266193       1.97046093      15.24472947       0.23938667      -0.00012418       0.08341250
Ti       1.97047269       1.97057450      11.83013359      -0.16029260      -0.00001080      -0.06748400
Ti       1.18201077       3.94088573      16.70901522       0.00379598       0.00011210      -0.01059860
O        0.00000902       1.97050521      12.05286706      -0.22694202      -0.00018101      -0.16605238
O        3.15294791       0.00000361      16.84507000      -0.00446575      -0.00000797       0.02138464
O        1.97049401       3.94093312      11.88636962       0.11642392      -0.00010027       0.07056470
O        1.18238144       1.97047936      16.83859435      -0.01936709      -0.00007379       0.01906576
O        1.97043419       1.97038596      10.01046141      -0.01967434       0.00037949      -0.03473046
O        1.18235158       3.94090180      14.89384942       0.07082875       0.00007148       0.00324293
10
Lattice="3.940949890606662 0.0 0.0 0.0 3.940949890606662 0.0 0.0 0.0 26.940967945119528" Properties=species:S:1:pos:R:3:forces:R:3 tau=tau85 tau_p=8 tau_q=5 stage=B constraint=xy_fixed_z_free force_label=raw_dft energy=-15499.317015845489 free_energy=-15499.317015845489 stress="0.010472505758964946 -0.0 -0.002120944091110733 -0.0 0.01039721683451859 1.8363152303989035e-06 -0.002120944091110733 1.8363152303989035e-06 -0.0009291755065818451" pbc="T T T"
Sr       0.00003612       0.00009431      10.37592728       0.00079678      -0.00007199      -0.03333564
Sr       3.15266193       1.97046093      15.25560890       0.22904775      -0.00012650      -0.00269452
Ti       1.97047269       1.97057450      11.82198371      -0.15584999      -0.00003034      -0.00994786
Ti       1.18201077       3.94088573      16.70487846       0.00308198       0.00012007       0.05684401
O        0.00000902       1.97050521      12.03799732      -0.21911532      -0.00017252      -0.11940306
O        3.15294791       0.00000361      16.84852943      -0.00417753      -0.00001131      -0.00648818
O        1.97049401       3.94093312      11.89316637       0.11837410      -0.00008279       0.04394735
O        1.18238144       1.97047936      16.84171861      -0.01839213      -0.00007508      -0.00602949
O        1.97043419       1.97038596      10.00537214      -0.01976664       0.00038207       0.00270686
O        1.18235158       3.94090180      14.89013774       0.06600125       0.00006813       0.07440001
10
Lattice="3.940949890606662 0.0 0.0 0.0 3.940949890606662 0.0 0.0 0.0 26.940967945119528" Properties=species:S:1:pos:R:3:forces:R:3 tau=tau85 tau_p=8 tau_q=5 stage=B constraint=xy_fixed_z_free force_label=raw_dft energy=-15499.317735858709 free_energy=-15499.317735858709 stress="0.010141969017493143 -0.0 -0.002089726732193952 -0.0 0.010272347398851467 1.8363152303989035e-06 -0.002089726732193952 1.8363152303989035e-06 -0.0010678173064769623" pbc="T T T"
Sr       0.00003612       0.00009431      10.37854093       0.00092534      -0.00007328      -0.06282928
Sr       3.15266193       1.97046093      15.25869634       0.22571740      -0.00012624      -0.02156564
Ti       1.97047269       1.97057450      11.81944198      -0.15467577      -0.00003754       0.00239858
Ti       1.18201077       3.94088573      16.70494848       0.00285624       0.00011956       0.06776374
O        0.00000902       1.97050521      12.03113639      -0.21586185      -0.00016841      -0.09426487
O        3.15294791       0.00000361      16.84942601      -0.00408600      -0.00001028      -0.00617605
O        1.97049401       3.94093312      11.89608097       0.11909787      -0.00007842       0.03200972
O        1.18238144       1.97047936      16.84252650      -0.01810288      -0.00007405      -0.00496686
O        1.97043419       1.97038596      10.00388253      -0.01987643       0.00038129       0.00648715
O        1.18235158       3.94090180      14.89063983       0.06400581       0.00006762       0.08114324
10
Lattice="3.940949890606662 0.0 0.0 0.0 3.940949890606662 0.0 0.0 0.0 26.940967945119528" Properties=species:S:1:pos:R:3:forces:R:3 tau=tau85 tau_p=8 tau_q=5 stage=B constraint=xy_fixed_z_free force_label=raw_dft energy=-15499.318537642135 free_energy=-15499.318537642135 stress="0.009877539624315701 -0.0 -0.002063100161353168 -0.0 0.010227357675706693 1.8363152303989035e-06 -0.002063100161353168 1.8363152303989035e-06 -0.0012211496282152708" pbc="T T T"
Sr       0.00003612       0.00009431      10.37937849       0.00097316      -0.00007585      -0.07865313
Sr       3.15266193       1.97046093      15.26083030       0.22294395      -0.00012624      -0.02831684
Ti       1.97047269       1.97057450      11.81739514      -0.15387358      -0.00003985       0.00636322
Ti       1.18201077       3.94088573      16.70639632       0.00270789       0.00011904       0.06631338
O        0.00000902       1.97050521      12.02358937      -0.21253793      -0.00016686      -0.06524020
O        3.15294791       0.00000361      16.85011098      -0.00402326      -0.00001080       0.00195687
O        1.97049401       3.94093312      11.89912652       0.11975710      -0.00007456       0.01848983
O        1.18238144       1.97047936      16.84316213      -0.01788665      -0.00007559       0.00350236
O        1.97043419       1.97038596      10.00269021      -0.02004201       0.00038129       0.00265158
O        1.18235158       3.94090180      14.89264050       0.06198133       0.00006916       0.07293320
10
Lattice="3.940949890606662 0.0 0.0 0.0 3.940949890606662 0.0 0.0 0.0 26.940967945119528" Properties=species:S:1:pos:R:3:forces:R:3 tau=tau85 tau_p=8 tau_q=5 stage=B constraint=xy_fixed_z_free force_label=raw_dft energy=-15499.319614260536 free_energy=-15499.319614260536 stress="0.009606683127831864 -0.0 -0.0020300464872059876 -0.0 0.010274183714081864 1.8363152303989035e-06 -0.0020300464872059876 1.8363152303989035e-06 -0.0014295714068655462" pbc="T T T"
Sr       0.00003612       0.00009431      10.37818633       0.00096365      -0.00007868      -0.08367064
Sr       3.15266193       1.97046093      15.26276268       0.21968251      -0.00012598      -0.02274012
Ti       1.97047269       1.97057450      11.81498254      -0.15322001      -0.00004191       0.00255079
Ti       1.18201077       3.94088573      16.71009137       0.00250528       0.00012084       0.05095952
O        0.00000902       1.97050521      12.01226883      -0.20781018      -0.00016378      -0.02196133
O        3.15294791       0.00000361      16.85111403      -0.00394330      -0.00001106       0.02045210
O        1.97049401       3.94093312      11.90345912       0.12058037      -0.00006993      -0.00316631
O        1.18238144       1.97047936      16.84414460      -0.01764060      -0.00007868       0.02200247
O        1.97043419       1.97038596      10.00115791      -0.02030554       0.00037975      -0.01054538
O        1.18235158       3.94090180      14.89715257       0.05918757       0.00006916       0.04611916
10
Lattice="3.940949890606662 0.0 0.0 0.0 3.940949890606662 0.0 0.0 0.0 26.940967945119528" Properties=species:S:1:pos:R:3:forces:R:3 tau=tau85 tau_p=8 tau_q=5 stage=B constraint=xy_fixed_z_free force_label=raw_dft energy=-15499.320403254611 free_energy=-15499.320403254611 stress="0.009487322637855934 -0.0 -0.002004338073980403 -0.0 0.010470669443734548 1.8363152303989035e-06 -0.002004338073980403 1.8363152303989035e-06 -0.0015783129405278575" pbc="T T T"
Sr       0.00003612       0.00009431      10.37375601       0.00082790      -0.00007919      -0.06626504
Sr       3.15266193       1.97046093      15.26358678       0.21709161      -0.00012444       0.00059238
Ti       1.97047269       1.97057450      11.81291985      -0.15301663      -0.00004191      -0.01193609
Ti       1.18201077       3.94088573      16.71575095       0.00241375       0.00011467       0.02227707
O        0.00000902       1.97050521      12.00047018      -0.20315443      -0.00016249       0.02015436
O        3.15294791       0.00000361      16.85266991      -0.00389059      -0.00000951       0.04331100
O        1.97049401       3.94093312      11.90751337       0.12116606      -0.00006685      -0.02848320
O        1.18238144       1.97047936      16.84574218      -0.01745548      -0.00008073       0.04434947
O        1.97043419       1.97038596       9.99942681      -0.02058322       0.00037898      -0.03026703
O        1.18235158       3.94090180      14.90348392       0.05660129       0.00007148       0.00626706
10
Lattice="3.940949890606662 0.0 0.0 0.0 3.940949890606662 0.0 0.0 0.0 26.940967945119528" Properties=species:S:1:pos:R:3:forces:R:3 tau=tau85 tau_p=8 tau_q=5 stage=B constraint=xy_fixed_z_free force_label=raw_dft energy=-15499.320740947885 free_energy=-15499.320740947885 stress="0.009586483660297474 -0.0 -0.002000665443519605 -0.0 0.010637774129700848 1.8363152303989035e-06 -0.002000665443519605 1.8363152303989035e-06 -0.001532405059767885" pbc="T T T"
Sr       0.00003612       0.00009431      10.36992589       0.00069008      -0.00007790      -0.04460890
Sr       3.15266193       1.97046093      15.26335067       0.21669437      -0.00012418       0.01839290
Ti       1.97047269       1.97057450      11.81227966      -0.15310097      -0.00004062      -0.02255552
Ti       1.18201077       3.94088573      16.71865085       0.00251197       0.00011364       0.00850264
O        0.00000902       1.97050521      11.99721281      -0.20196890      -0.00016327       0.02680041
O        3.15294791       0.00000361      16.85406315      -0.00389188      -0.00000900       0.04825626
O        1.97049401       3.94093312      11.90800454       0.12101051      -0.00006762      -0.03854238
O        1.18238144       1.97047936      16.84719333      -0.01742745      -0.00008073       0.04881548
O        1.97043419       1.97038596       9.99835866      -0.02063387       0.00037821      -0.03713521
O        1.18235158       3.94090180      14.90628040       0.05611613       0.00007199      -0.00792568
10
Lattice="3.940949890606662 0.0 0.0 0.0 3.940949890606662 0.0 0.0 0.0 26.940967945119528" Properties=species:S:1:pos:R:3:forces:R:3 tau=tau85 tau_p=8 tau_q=5 stage=B constraint=xy_fixed_z_free force_label=raw_dft energy=-15499.321117689497 free_energy=-15499.321117689497 stress="0.009737061509190185 -0.0 -0.001999747285904406 -0.0 0.010813142234203944 1.8363152303989035e-06 -0.001999747285904406 1.8363152303989035e-06 -0.0014176353578679536" pbc="T T T"
Sr       0.00003612       0.00009431      10.36571274       0.00054250      -0.00007688      -0.02223233
Sr       3.15266193       1.97046093      15.26344463       0.21630717      -0.00012367       0.03446512
Ti       1.97047269       1.97057450      11.81133425      -0.15304414      -0.00003754      -0.03119905
Ti       1.18201077       3.94088573      16.72135301       0.00265724       0.00011313      -0.00027434
O        0.00000902       1.97050521      11.99501918      -0.20113149      -0.00016506       0.02595580
O        3.15294791       0.00000361      16.85613774      -0.00389239      -0.00000874       0.04706019
O        1.97049401       3.94093312      11.90758455       0.12058757      -0.00006916      -0.04736666
O        1.18238144       1.97047936      16.84933128      -0.01737860      -0.00008022       0.04720571
O        1.97043419       1.97038596       9.99678924      -0.02060791       0.00037641      -0.04011075
O        1.18235158       3.94090180      14.90861333       0.05596006       0.00007199      -0.01350421
10
Lattice="3.940949890606662 0.0 0.0 0.0 3.940949890606662 0.0 0.0 0.0 26.940967945119528" Properties=species:S:1:pos:R:3:forces:R:3 tau=tau85 tau_p=8 tau_q=5 stage=B constraint=xy_fixed_z_free force_label=raw_dft energy=-15499.321697155916 free_energy=-15499.321697155916 stress="0.009955583021607655 -0.0 -0.0019951564978284084 -0.0 0.011050945056540602 1.8363152303989035e-06 -0.0019951564978284084 1.8363152303989035e-06 -0.0012110498944480769" pbc="T T T"
Sr       0.00003612       0.00009431      10.35939303       0.00034581      -0.00007559       0.00675969
Sr       3.15266193       1.97046093      15.26452436       0.21515994      -0.00012316       0.05337327
Ti       1.97047269       1.97057450      11.80913014      -0.15252350      -0.00003728      -0.04000019
Ti       1.18201077       3.94088573      16.72533766       0.00281099       0.00011107      -0.00753436
O        0.00000902       1.97050521      11.99168980      -0.19969990      -0.00016635       0.02141343
O        3.15294791       0.00000361      16.86008330      -0.00388134      -0.00000797       0.04008633
O        1.97049401       3.94093312      11.90625566       0.11971339      -0.00007122      -0.05998769
O        1.18238144       1.97047936      16.85336557      -0.01722511      -0.00007868       0.03978499
O        1.97043419       1.97038596       9.99364296      -0.02048732       0.00037744      -0.04015060
O        1.18235158       3.94090180      14.91189748       0.05578703       0.00007173      -0.01374460
10
Lattice="3.940949890606662 0.0 0.0 0.0 3.940949890606662 0.0 0.0 0.0 26.940967945119528" Properties=species:S:1:pos:R:3:forces:R:3 tau=tau85 tau_p=8 tau_q=5 stage=B constraint=xy_fixed_z_free force_label=raw_dft energy=-15499.322543429953 free_energy=-15499.322543429953 stress="0.010246638985625882 0.0 -0.0019823022912156163 0.0 0.011359446015247616 1.8363152303989035e-06 -0.0019823022912156163 1.8363152303989035e-06 -0.000884185783437072" pbc="T T T"
Sr       0.00003612       0.00009431      10.34991346       0.00007790      -0.00007456       0.04229696
Sr       3.15266193       1.97046093      15.26767225       0.21242300      -0.00012213       0.07408377
Ti       1.97047269       1.97057450      11.80455237      -0.15114281      -0.00002957      -0.04814751
Ti       1.18201077       3.94088573      16.73152415       0.00310024       0.00010464      -0.01120332
O        0.00000902       1.97050521      11.98595529      -0.19702518      -0.00016944       0.01311623
O        3.15294791       0.00000361      16.86714075      -0.00384971      -0.00000746       0.02503406
O        1.97049401       3.94093312      11.90330748       0.11804346      -0.00007430      -0.07751336
O        1.18238144       1.97047936      16.86054752      -0.01689703      -0.00007610       0.02427507
O        1.97043419       1.97038596       9.98774744      -0.02020964       0.00037718      -0.03570542
O        1.18235158       3.94090180      14.91695924       0.05548004       0.00007173      -0.00623672
10
Lattice="3.940949890606662 0.0 0.0 0.0 3.940949890606662 0.0 0.0 0.0 26.940967945119528" Properties=species:S:1:pos:R:3:forces:R:3 tau=tau85 tau_p=8 tau_q=5 stage=B constraint=xy_fixed_z_free force_label=raw_dft energy=-15499.323732159255 free_energy=-15499.323732159255 stress="0.010610229401244864 -0.0 -0.0019520030899140342 -0.0 0.01174048142555539 1.8363152303989035e-06 -0.0019520030899140342 1.8363152303989035e-06 -0.00039388961692056473" pbc="T T T"
Sr       0.00003612       0.00009431      10.33569411      -0.00023089      -0.00007045       0.08119467
Sr       3.15266193       1.97046093      15.27492907       0.20674009      -0.00012341       0.09360718
Ti       1.97047269       1.97057450      11.79560097      -0.14807677      -0.00002931      -0.05349180
Ti       1.18201077       3.94088573      16.74147729       0.00342265       0.00010156      -0.00781718
O        0.00000902       1.97050521      11.97575506      -0.19201101      -0.00017175       0.00074228
O        3.15294791       0.00000361      16.87936507      -0.00377772      -0.00000668      -0.00110069
O        1.97049401       3.94093312      11.89721735       0.11495454      -0.00007585      -0.09997092
O        1.18238144       1.97047936      16.87294741      -0.01624320      -0.00007173      -0.00212502
O        1.97043419       1.97038596       9.97708725      -0.01966740       0.00037718      -0.02428561
O        1.18235158       3.94090180      14.92524639       0.05488971       0.00007071       0.01324709
10
Lattice="3.940949890606662 0.0 0.0 0.0 3.940949890606662 0.0 0.0 0.0 26.940967945119528" Properties=species:S:1:pos:R:3:forces:R:3 tau=tau85 tau_p=8 tau_q=5 stage=B constraint=xy_fixed_z_free force_label=raw_dft energy=-15499.325326202123 free_energy=-15499.325326202123 stress="0.01096739271355745 0.0 -0.001894159160156469 0.0 0.012105908156404771 1.8363152303989035e-06 -0.001894159160156469 1.8363152303989035e-06 0.00022403045810866622" pbc="T T T"
Sr       0.00003612       0.00009431      10.31563678      -0.00041292      -0.00006788       0.11306760
Sr       3.15266193       1.97046093      15.28940246       0.19636826      -0.00012290       0.10271069
Ti       1.97047269       1.97057450      11.77954833      -0.14220155      -0.00003137      -0.05197974
Ti       1.18201077       3.94088573      16.75710755       0.00337072       0.00009590       0.00715718
O        0.00000902       1.97050521      11.95835359      -0.18322607      -0.00017381      -0.01402768
O        3.15294791       0.00000361      16.89892781      -0.00354092      -0.00000591      -0.03781527
O        1.97049401       3.94093312      11.88556428       0.10964161      -0.00007610      -0.12293833
O        1.18238144       1.97047936      16.89274989      -0.01511320      -0.00006582      -0.03849199
O        1.97043419       1.97038596       9.95924422      -0.01869809       0.00037795      -0.00402275
O        1.18235158       3.94090180      14.93878507       0.05381190       0.00006968       0.04634053
10
Lattice="3.940949890606662 0.0 0.0 0.0 3.940949890606662 0.0 0.0 0.0 26.940967945119528" Properties=species:S:1:pos:R:3:forces:R:3 tau=tau85 tau_p=8 tau_q=5 stage=B constraint=xy_fixed_z_free force_label=raw_dft energy=-15499.327188005007 free_energy=-15499.327188005007 stress="0.011117052404834961 0.0 -0.0018161157628645156 0.0 0.012237204695378291 1.8363152303989035e-06 -0.0018161157628645156 1.8363152303989035e-06 0.0006950453147059849" pbc="T T T"
Sr       0.00003612       0.00009431      10.29527823      -0.00056539      -0.00006788       0.11572535
Sr       3.15266193       1.97046093      15.30949333       0.18333482      -0.00012264       0.09025601
Ti       1.97047269       1.97057450      11.75893385      -0.13428820      -0.00003780      -0.03775254
Ti       1.18201077       3.94088573      16.77559711       0.00347433       0.00009282       0.02423625
O        0.00000902       1.97050521      11.93666409      -0.17244517      -0.00017329      -0.02306511
O        3.15294791       0.00000361      16.92124245      -0.00333883      -0.00000617      -0.06721558
O        1.97049401       3.94093312      11.86924512       0.10292126      -0.00007302      -0.13111006
O        1.18238144       1.97047936      16.91532073      -0.01381557      -0.00006145      -0.06689188
O        1.97043419       1.97038596       9.93783146      -0.01754212       0.00038001       0.01695540
O        1.18235158       3.94090180      14.95571360       0.05226436       0.00006916       0.07886190
10
Lattice="3.940949890606662 0.0 0.0 0.0 3.940949890606662 0.0 0.0 0.0 26.940967945119528" Properties=species:S:1:pos:R:3:forces:R:3 tau=tau85 tau_p=8 tau_q=5 stage=B constraint=xy_fixed_z_free force_label=raw_dft energy=-15499.32937362336 free_energy=-15499.32937362336 stress="0.010998610072474232 0.0 -0.001727972631805368 0.0 0.012035210020034413 1.8363152303989035e-06 -0.001727972631805368 1.8363152303989035e-06 0.000884185783437072" pbc="T T T"
Sr       0.00003612       0.00009431      10.27629057      -0.00056436      -0.00006942       0.08350429
Sr       3.15266193       1.97046093      15.33432126       0.16913642      -0.00012341       0.05561579
Ti       1.97047269       1.97057450      11.73504492      -0.12517544      -0.00004962      -0.01317922
Ti       1.18201077       3.94088573      16.79621312       0.00332058       0.00009744       0.03761447
O        0.00000902       1.97050521      11.91235213      -0.16063327      -0.00017072      -0.02344100
O        3.15294791       0.00000361      16.94427262      -0.00310486      -0.00000771      -0.07842353
O        1.97049401       3.94093312      11.84777949       0.09513750      -0.00006608      -0.11431999
O        1.18238144       1.97047936      16.93863672      -0.01245777      -0.00006042      -0.07701894
O        1.97043419       1.97038596       9.91445787      -0.01618767       0.00038155       0.03327522
O        1.18235158       3.94090180      14.97595128       0.05052886       0.00006839       0.09637292
10
Lattice="3.940949890606662 0.0 0.0 0.0 3.940949890606662 0.0 0.0 0.0 26.940967945119528" Properties=species:S:1:pos:R:3:forces:R:3 tau=tau85 tau_p=8 tau_q=5 stage=B constraint=xy_fixed_z_free force_label=raw_dft energy=-15499.33138182349 free_energy=-15499.33138182349 stress="0.010605638613168867 -0.0 -0.0016480929192830157 -0.0 0.011459525195304356 1.8363152303989035e-06 -0.0016480929192830157 1.8363152303989035e-06 0.0006509737491764112" pbc="T T T"
Sr       0.00003612       0.00009431      10.26212761      -0.00048774      -0.00007122       0.02044644
Sr       3.15266193       1.97046093      15.35946334       0.15679513      -0.00012290       0.00512292
Ti       1.97047269       1.97057450      11.71247742      -0.11691706      -0.00007096       0.00871270
Ti       1.18201077       3.94088573      16.81584906       0.00323470       0.00010284       0.04214347
O        0.00000902       1.97050521      11.89050925      -0.15012800      -0.00016455      -0.01299358
O        3.15294791       0.00000361      16.96303409      -0.00285650      -0.00000848      -0.05834939
O        1.97049401       3.94093312      11.82323317       0.08742419      -0.00005528      -0.06291721
O        1.18238144       1.97047936      16.95770084      -0.01126632      -0.00006299      -0.05637632
O        1.97043419       1.97038596       9.89384606      -0.01493605       0.00038361       0.03494309
O        1.18235158       3.94090180      14.99707911       0.04913764       0.00006968       0.07926814
10
Lattice="3.940949890606662 0.0 0.0 0.0 3.940949890606662 0.0 0.0 0.0 26.940967945119528" Properties=species:S:1:pos:R:3:forces:R:3 tau=tau85 tau_p=8 tau_q=5 stage=B constraint=xy_fixed_z_free force_label=raw_dft energy=-15499.332113129432 free_energy=-15499.332113129432 stress="0.010344881850452223 -0.0 -0.0016205481908270322 -0.0 0.011051863214155801 1.8363152303989035e-06 -0.0016205481908270322 1.8363152303989035e-06 0.00030482832824621796" pbc="T T T"
Sr       0.00003612       0.00009431      10.25686745      -0.00041832      -0.00007225      -0.01258221
Sr       3.15266193       1.97046093      15.37010680       0.15225199      -0.00012033      -0.01690089
Ti       1.97047269       1.97057450      11.70345695      -0.11371578      -0.00008356       0.01287300
Ti       1.18201077       3.94088573      16.82527916       0.00338254       0.00010130       0.02878504
O        0.00000902       1.97050521      11.88213234      -0.14604560      -0.00016095      -0.00320565
O        3.15294791       0.00000361      16.96893633      -0.00278065      -0.00000694      -0.02572826
O        1.97049401       3.94093312      11.81008205       0.08377065      -0.00004911      -0.01917040
O        1.18238144       1.97047936      16.96379447      -0.01086497      -0.00006505      -0.02379016
O        1.97043419       1.97038596       9.88640611      -0.01443469       0.00038592       0.01930359
O        1.18235158       3.94090180      15.00825832       0.04885456       0.00007122       0.04041594
10
Lattice="3.940949890606662 0.0 0.0 0.0 3.940949890606662 0.0 0.0 0.0 26.940967945119528" Properties=species:S:1:pos:R:3:forces:R:3 tau=tau85 tau_p=8 tau_q=5 stage=B constraint=xy_fixed_z_free force_label=raw_dft energy=-15499.332290003425 free_energy=-15499.332290003425 stress="0.010307237388229045 -0.0 -0.001617793717981434 -0.0 0.010949947718868662 1.8363152303989035e-06 -0.001617793717981434 1.8363152303989035e-06 0.00014139627274071558" pbc="T T T"
Sr       0.00003612       0.00009431      10.25452726      -0.00043220      -0.00007276      -0.01281001
Sr       3.15266193       1.97046093      15.37206317       0.15155753      -0.00012136      -0.01444343
Ti       1.97047269       1.97057450      11.70171171      -0.11307532      -0.00007919       0.00770842
Ti       1.18201077       3.94088573      16.82890488       0.00350107       0.00010464       0.01177102
O        0.00000902       1.97050521      11.88031692      -0.14520434      -0.00016095       0.00068674
O        3.15294791       0.00000361      16.96967567      -0.00278091      -0.00000874      -0.00549419
O        1.97049401       3.94093312      11.80566585       0.08263783      -0.00004911      -0.00085283
O        1.18238144       1.97047936      16.96465284      -0.01081997      -0.00006916      -0.00397698
O        1.97043419       1.97038596       9.88512593      -0.01432182       0.00038361       0.00560089
O        1.18235158       3.94090180      15.01267572       0.04893761       0.00007302       0.01181062
