Sr Ti O
 1.0000000000000000
     3.9409498906066620    0.0000000000000000    0.0000000000000000
     0.0000000000000000    3.9409498906066620    0.0000000000000000
     0.0000000000000000    0.0000000000000000   26.9409679451195281
 Sr  Ti  O
   2   2   6
Cartesian
  0.0000361212000000  0.0000943054000000 10.4405119920999994
  2.3644719442000000  3.9409358930999998 15.1544340574999996
  1.9704726885999999  1.9705745045000000 11.9206634232000006
  0.3938207889000000  1.9704107716000001 16.6324917947000017
  0.0000090208000000  1.9705052130000000 11.9460844584999997
  2.3647579281000000  1.9704785669000000 16.7575187298000010
  1.9704940097000001  3.9409331233999998 12.1448257718000008
  0.3941914527000000  0.0000044059000000 16.7727011310999998
  1.9704341934000000  1.9703859550000000 10.0948385745000007
  0.3941616005000000  1.9704268429000000 14.8112500298000000
