10
Lattice="3.940949890606662 0.0 0.0 0.0 3.940949890606662 0.0 0.0 0.0 26.940967945119528" Properties=species:S:1:pos:R:3:forces:R:3 tau=tau60 tau_p=6 tau_q=0 stage=B constraint=xy_fixed_z_free force_label=raw_dft energy=-15497.561349739664 free_energy=-15497.561349739664 stress="0.020073679941105614 -0.0 -0.01321504255556571 -0.0 0.004894698246628277 9.181576151994517e-07 -0.01321504255556571 9.181576151994517e-07 -0.032474316691989406" pbc="T T T"
Sr       0.00003626       0.00009419      10.75260867      -0.00483702       0.00003959       0.28206776
Sr       2.36447180       3.94093570      14.64522241       0.65714749       0.00013241       4.61777790
Ti       1.97047258       1.97057465      12.38212169      -0.33988955      -0.00063995      -2.30496107
Ti       0.39382070       1.97041071      16.28444791       0.15027121      -0.00003265       0.31328326
O        0.00000906       1.97050529      12.45001441      -1.55815151       0.00005065      -3.64379568
O        2.36475792       1.97047849      16.39256827      -0.01831422       0.00000900      -0.29420568
O        1.97049386       3.94093294      12.44909065      -0.21860779       0.00021392      -1.49218446
O        0.39419154       0.00000434      16.37955485       0.04670640       0.00000540      -0.06412331
O        1.97043435       1.97038588      10.49176941      -0.20195604       0.00022034       0.27932953
O        0.39416159       1.97042687      14.44792112       1.48763155       0.00000180       2.30681175
10
Lattice="3.940949890606662 0.0 0.0 0.0 3.940949890606662 0.0 0.0 0.0 26.940967945119528" Properties=species:S:1:pos:R:3:forces:R:3 tau=tau60 tau_p=6 tau_q=0 stage=B constraint=xy_fixed_z_free force_label=raw_dft energy=-15498.335481093038 free_energy=-15498.335481093038 stress="0.015258861406999688 0.0 -0.0098793759395461 0.0 0.003042774336770983 9.181576151994517e-07 -0.0098793759395461 9.181576151994517e-07 -0.028908192514554735" pbc="T T T"
Sr       0.00003612       0.00009431      10.75841415      -0.00283850       0.00000489       0.24058147
Sr       2.36447194       3.94093589      14.74026450       0.38973219       0.00005502       2.81693585
Ti       1.97047269       1.97057450      12.33468190      -0.32977946      -0.00055819      -1.39058912
Ti       0.39382079       1.97041077      16.29089582       0.12111464       0.00004782       0.65800829
O        0.00000902       1.97050521      12.37501889      -1.10259908       0.00001903      -2.44683609
O        2.36475793       1.97047857      16.38651307      -0.01997413      -0.00000257      -0.01199060
O        1.97049401       3.94093312      12.41837892      -0.02157413       0.00021469      -0.50668627
O        0.39419145       0.00000441      16.37823504       0.03801736      -0.00006556       0.19186292
O        1.97043419       1.97038596      10.49751847      -0.17045823       0.00022523      -0.40446204
O        0.39416160       1.97042684      14.49539920       1.09835933       0.00005965       0.85317585
10
Lattice="3.940949890606662 0.0 0.0 0.0 3.940949890606662 0.0 0.0 0.0 26.940967945119528" Properties=species:S:1:pos:R:3:forces:R:3 tau=tau60 tau_p=6 tau_q=0 stage=B constraint=xy_fixed_z_free force_label=raw_dft energy=-15498.810205725791 free_energy=-15498.810205725791 stress="0.009616782861599057 0.0 -0.007309452774602835 0.0 0.0005600761452716655 0.0 -0.007309452774602835 0.0 -0.02555783537669194" pbc="T T T"
Sr       0.00003612       0.00009431      10.76712601      -0.00030725      -0.00002751      -0.00610971
Sr       2.36447194       3.94093589      14.84481049       0.21706333       0.00000746       1.18103727
Ti       1.97047269       1.97057450      12.28302343      -0.30635517      -0.00051653      -0.59195511
Ti       0.39382079       1.97041077      16.31383839       0.09676192       0.00009924       0.34454865
O        0.00000902       1.97050521      12.28491795      -0.76836698       0.00003394      -1.36180304
O        2.36475793       1.97047857      16.38553777      -0.01736420      -0.00001825       0.41068308
O        1.97049401       3.94093312      12.39829625       0.09206863       0.00022909       0.06321931
O        0.39419145       0.00000441      16.38462437       0.02940365      -0.00010593       0.56217325
O        1.97043419       1.97038596      10.48432769      -0.14224680       0.00021160      -0.91888939
O        0.39416160       1.97042684      14.52881763       0.79934286       0.00008690       0.31709544
10
Lattice="3.940949890606662 0.0 0.0 0.0 3.940949890606662 0.0 0.0 0.0 26.940967945119528" Properties=species:S:1:pos:R:3:forces:R:3 tau=tau60 tau_p=6 tau_q=0 stage=B constraint=xy_fixed_z_free force_label=raw_dft energy=-15499.040683834166 free_energy=-15499.040683834166 stress="0.004301568427209431 0.0 -0.005432738609135156 0.0 -0.0020282101719755886 0.0 -0.005432738609135156 0.0 -0.021935703584730102" pbc="T T T"
Sr       0.00003612       0.00009431      10.77118857       0.00249603      -0.00010259      -0.45996701
Sr       2.36447194       3.94093589      14.94610645       0.11941386      -0.00003060      -0.09195602
Ti       1.97047269       1.97057450      12.23258046      -0.28428790      -0.00054790      -0.37974037
Ti       0.39382079       1.97041077      16.33757977       0.07557629       0.00018306       0.19200998
O        0.00000902       1.97050521      12.18498484      -0.53275649       0.00008253      -0.33403361
O        2.36475793       1.97047857      16.40050499      -0.01500881      -0.00004474       0.74271457
O        1.97049401       3.94093312      12.38864559       0.14617133       0.00024888       0.32282154
O        0.39419145       0.00000441      16.40916061       0.02266196      -0.00014167       0.82260543
O        1.97043419       1.97038596      10.44355926      -0.11549524       0.00024683      -0.81525002
O        0.39416160       1.97042684      14.56100943       0.58122898       0.00010619       0.00079524
10
Lattice="3.940949890606662 0.0 0.0 0.0 3.940949890606662 0.0 0.0 0.0 26.940967945119528" Properties=species:S:1:pos:R:3:forces:R:3 tau=tau60 tau_p=6 tau_q=0 stage=B constraint=xy_fixed_z_free force_label=raw_dft energy=-15499.126892083334 free_energy=-15499.126892083334 stress="0.002786608362130336 0.0 -0.004687194625593201 0.0 -0.0021576703957187113 0.0 -0.004687194625593201 0.0 -0.019363944104556437" pbc="T T T"
Sr       0.00003612       0.00009431      10.76019813       0.00371833      -0.00013293      -0.65703153
Sr       2.36447194       3.94093589      14.99032837       0.08838733      -0.00004808      -0.46910394
Ti       1.97047269       1.97057450      12.19812203      -0.27138997      -0.00054585      -0.27776296
Ti       0.39382079       1.97041077      16.35284466       0.06735339       0.00019155       0.25672028
O        0.00000902       1.97050521      12.13164734      -0.44301367       0.00011236       0.06020032
O        2.36475793       1.97047857      16.42602326      -0.01355768      -0.00004962       0.74970231
O        1.97049401       3.94093312      12.39097384       0.15893737       0.00023654       0.24628829
O        0.39419145       0.00000441      16.44087733       0.01997747      -0.00013704       0.78346887
O        1.97043419       1.97038596      10.40703257      -0.10179023       0.00026534      -0.61932296
O        0.39416160       1.97042684      14.57727243       0.49137767       0.00010799      -0.07315868
10
Lattice="3.940949890606662 0.0 0.0 0.0 3.940949890606662 0.0 0.0 0.0 26.940967945119528" Properties=species:S:1:pos:R:3:forces:R:3 tau=tau60 tau_p=6 tau_q=0 stage=B constraint=xy_fixed_z_free force_label=raw_dft energy=-15499.22706208539 free_energy=-15499.22706208539 stress="0.002811398617740721 0.0 -0.004004085359884809 0.0 -0.00043704302483493903 0.0 -0.004004085359884809 0.0 -0.01508716593295739" pbc="T T T"
Sr       0.00003612       0.00009431      10.72961732       0.00458582      -0.00014810      -0.76509757
Sr       2.36447194       3.94093589      15.02972995       0.06372839      -0.00006351      -0.62522493
Ti       1.97047269       1.97057450      12.15104581      -0.25562808      -0.00053016      -0.11050524
Ti       0.39382079       1.97041077      16.37790539       0.06138380       0.00018975       0.33836000
O        0.00000902       1.97050521      12.07297609      -0.36402964       0.00013241       0.32891120
O        2.36475793       1.97047857      16.47324019      -0.01169569      -0.00004988       0.59348851
O        1.97049401       3.94093312      12.39724350       0.16628507       0.00020235      -0.00249706
O        0.39419145       0.00000441      16.49570419       0.01720094      -0.00011313       0.57438625
O        1.97043419       1.97038596      10.35248025      -0.08696782       0.00027871      -0.33945427
O        0.39416160       1.97042684      14.59537727       0.40513721       0.00010156       0.00763309
10
Lattice="3.940949890606662 0.0 0.0 0.0 3.940949890606662 0.0 0.0 0.0 26.940967945119528" Properties=species:S:1:pos:R:3:forces:R:3 tau=tau60 tau_p=6 tau_q=0 stage=B constraint=xy_fixed_z_free force_label=raw_dft energy=-15499.325580900677 free_energy=-15499.325580900677 stress="0.005013140578989006 0.0 -0.003388919757701176 0.0 0.003988476680426418 0.0 -0.003388919757701176 0.0 -0.008527847929972509" pbc="T T T"
Sr       0.00003612       0.00009431      10.66775832       0.00468584      -0.00014784      -0.70856544
Sr       2.36447194       3.94093589      15.05998151       0.04554658      -0.00008099      -0.49852610
Ti       1.97047269       1.97057450      12.09060156      -0.23744061      -0.00045303       0.08937463
Ti       0.39382079       1.97041077      16.41986828       0.05674013       0.00015324       0.42673705
O        0.00000902       1.97050521      12.01077396      -0.29506186       0.00012007       0.41123355
O        2.36475793       1.97047857      16.54846261      -0.00957325      -0.00004217       0.24729873
O        1.97049401       3.94093312      12.40218903       0.16816634       0.00011596      -0.39968621
O        0.39419145       0.00000441      16.57944620       0.01469463      -0.00006659       0.17825098
O        1.97043419       1.97038596      10.27610431      -0.07124193       0.00030982       0.02874596
O        0.39416160       1.97042684      14.62013419       0.32348437       0.00009127       0.22513685
10
Lattice="3.940949890606662 0.0 0.0 0.0 3.940949890606662 0.0 0.0 0.0 26.940967945119528" Properties=species:S:1:pos:R:3:forces:R:3 tau=tau60 tau_p=6 tau_q=0 stage=B constraint=xy_fixed_z_free force_label=raw_dft energy=-15499.373360553263 free_energy=-15499.373360553263 stress="0.007609690314773056 0.0 -0.003205288234661286 0.0 0.0076473347769962325 9.181576151994517e-07 -0.003205288234661286 9.181576151994517e-07 -0.004541207564776488" pbc="T T T"
Sr       0.00003612       0.00009431      10.61675172       0.00406723      -0.00011210      -0.50610109
Sr       2.36447194       3.94093589      15.06040011       0.04289988      -0.00008228      -0.24939212
Ti       1.97047269       1.97057450      12.06271810      -0.23007234      -0.00041395       0.13091029
Ti       0.39382079       1.97041077      16.45250563       0.05626731       0.00010927       0.39039013
O        0.00000902       1.97050521      11.99038734      -0.27232353       0.00008228       0.29402493
O        2.36475793       1.97047857      16.59476481      -0.00843528      -0.00002700       0.02891154
O        1.97049401       3.94093312      12.39511198       0.16519389       0.00007199      -0.57100113
O        0.39419145       0.00000441      16.62834636       0.01336974      -0.00002777      -0.04762403
O        1.97043419       1.97038596      10.23592528      -0.06464807       0.00031290       0.17877806
O        0.39416160       1.97042684      14.63840864       0.29368092       0.00008716       0.35110368
10
Lattice="3.940949890606662 0.0 0.0 0.0 3.940949890606662 0.0 0.0 0.0 26.940967945119528" Properties=species:S:1:pos:R:3:forces:R:3 tau=tau60 tau_p=6 tau_q=0 stage=B constraint=xy_fixed_z_free force_label=raw_dft energy=-15499.413862793352 free_energy=-15499.413862793352 stress="0.010592784406556074 0.0 -0.0031309174678301305 0.0 0.01111980687768056 9.181576151994517e-07 -0.0031309174678301305 9.181576151994517e-07 -0.0013533643248039918" pbc="T T T"
Sr       0.00003612       0.00009431      10.55887854       0.00281330      -0.00006865      -0.19048532
Sr       2.36447194       3.94093589      15.04974819       0.04540183      -0.00007713       0.05859853
Ti       1.97047269       1.97057450      12.04502659      -0.22580456      -0.00036844       0.07262749
Ti       0.39382079       1.97041077      16.49100938       0.05678770       0.00006453       0.25337656
O        0.00000902       1.97050521      11.98463382      -0.25966214       0.00002288       0.10738367
O        2.36475793       1.97047857      16.63493438      -0.00716772      -0.00001646      -0.11559191
O        1.97049401       3.94093312      12.37298972       0.15953129       0.00003600      -0.60220378
O        0.39419145       0.00000441      16.66824627       0.01219423      -0.00000051      -0.18061485
O        1.97043419       1.97038596      10.20681738      -0.05969536       0.00032010       0.21022162
O        0.39416160       1.97042684      14.66303570       0.27560169       0.00008742       0.38668800
10
Lattice="3.940949890606662 0.0 0.0 0.0 3.940949890606662 0.0 0.0 0.0 26.940967945119528" Properties=species:S:1:pos:R:3:forces:R:3 tau=tau60 tau_p=6 tau_q=0 stage=B constraint=xy_fixed_z_free force_label=raw_dft energy=-15499.437871533393 free_energy=-15499.437871533393 stress="0.012388700701886203 0.0 -0.0030850095870701573 0.0 0.01274494585658359 9.181576151994517e-07 -0.0030850095870701573 9.181576151994517e-07 -2.9381043686382456e-05" pbc="T T T"
Sr       0.00003612       0.00009431      10.51821061       0.00184168      -0.00004525       0.05828074
Sr       2.36447194       3.94093589      15.04297074       0.04794259      -0.00007353       0.24170221
Ti       1.97047269       1.97057450      12.03715241      -0.22269276      -0.00034299      -0.03190636
Ti       0.39382079       1.97041077      16.52171861       0.05757780       0.00005348       0.09034985
O        0.00000902       1.97050521      11.98582513      -0.25190049      -0.00001800       0.00197846
O        2.36475793       1.97047857      16.65641684      -0.00624675      -0.00000874      -0.12563387
O        1.97049401       3.94093312      12.34287779       0.15400934       0.00002674      -0.49875802
O        0.39419145       0.00000441      16.68759388       0.01113545       0.00000360      -0.17471314
O        1.97043419       1.97038596      10.19464289      -0.05647814       0.00031445       0.12705518
O        0.39416160       1.97042684      14.68791107       0.26481103       0.00008999       0.31164521
10
Lattice="3.940949890606662 0.0 0.0 0.0 3.940949890606662 0.0 0.0 0.0 26.940967945119528" Properties=species:S:1:pos:R:3:forces:R:3 tau=tau60 tau_p=6 tau_q=0 stage=B constraint=xy_fixed_z_free force_label=raw_dft energy=-15499.455054705963 free_energy=-15499.455054705963 stress="0.013047937869599409 0.0 -0.0029748306732462234 0.0 0.013022229456373822 9.181576151994517e-07 -0.0029748306732462234 9.181576151994517e-07 0.00016802284358149967" pbc="T T T"
Sr       0.00003612       0.00009431      10.49079534       0.00136294      -0.00003188       0.21209133
Sr       2.36447194       3.94093589      15.04784232       0.04773484      -0.00007173       0.29755480
Ti       1.97047269       1.97057450      12.02857988      -0.21629071      -0.00033399      -0.12126145
Ti       0.39382079       1.97041077      16.54727051       0.05661441       0.00004448      -0.03474280
O        0.00000902       1.97050521      11.98399097      -0.24094451      -0.00004268      -0.01452442
O        2.36475793       1.97047857      16.66933649      -0.00560346      -0.00000489      -0.06389191
O        1.97049401       3.94093312      12.30737650       0.14840253       0.00003857      -0.34217732
O        0.39419145       0.00000441      16.69789424       0.00994760      -0.00000360      -0.10101350
O        1.97043419       1.97038596      10.18754045      -0.05292796       0.00031085      -0.00024503
O        0.39416160       1.97042684      14.71469327       0.25170457       0.00009487       0.16821031
10
Lattice="3.940949890606662 0.0 0.0 0.0 3.940949890606662 0.0 0.0 0.0 26.940967945119528" Properties=species:S:1:pos:R:3:forces:R:3 tau=tau60 tau_p=6 tau_q=0 stage=B constraint=xy_fixed_z_free force_label=raw_dft energy=-15499.469357689608 free_energy=-15499.469357689608 stress="0.012738518753277191 0.0 -0.0027792631012087403 0.0 0.012374010180043011 9.181576151994517e-07 -0.0027792631012087403 9.181576151994517e-07 -0.0002901378064030267" pbc="T T T"
Sr       0.00003612       0.00009431      10.47325808       0.00127295      -0.00003240       0.25804491
Sr       2.36447194       3.94093589      15.06707692       0.04430859      -0.00007148       0.23867036
Ti       1.97047269       1.97057450      12.01330578      -0.20461585      -0.00032627      -0.16287913
Ti       0.39382079       1.97041077      16.56989084       0.05369646       0.00005476      -0.09399079
O        0.00000902       1.97050521      11.97528931      -0.22468176      -0.00005399       0.03528428
O        2.36475793       1.97047857      16.68082396      -0.00516689      -0.00000668       0.02738585
O        1.97049401       3.94093312      12.26789136       0.14178965       0.00005116      -0.18413238
O        0.39419145       0.00000441      16.70684275       0.00861320      -0.00002571      -0.00380472
O        1.97043419       1.97038596      10.17758933      -0.04838508       0.00030982      -0.11878625
O        0.39416160       1.97042684      14.74335163       0.23316872       0.00010053       0.00420761
10
Lattice="3.940949890606662 0.0 0.0 0.0 3.940949890606662 0.0 0.0 0.0 26.940967945119528" Properties=species:S:1:pos:R:3:forces:R:3 tau=tau60 tau_p=6 tau_q=0 stage=B constraint=xy_fixed_z_free force_label=raw_dft energy=-15499.480425919994 free_energy=-15499.480425919994 stress="0.011880959540680905 0.0 -0.00252860607225929 0.0 0.011359446015247616 9.181576151994517e-07 -0.00252860607225929 9.181576151994517e-07 -0.0007932881795323262" pbc="T T T"
Sr       0.00003612       0.00009431      10.46210530       0.00149407      -0.00004474       0.20414379
Sr       2.36447194       3.94093589      15.09743399       0.03904040      -0.00007790       0.11155400
Ti       1.97047269       1.97057450      11.98928760      -0.18833151      -0.00033064      -0.14833903
Ti       0.39382079       1.97041077      16.59047964       0.04884967       0.00006916      -0.08768002
O        0.00000902       1.97050521      11.96002721      -0.20551110      -0.00005656       0.10652492
O        2.36475793       1.97047857      16.69652449      -0.00488741      -0.00000746       0.09866737
O        1.97049401       3.94093312      12.22900353       0.13396450       0.00006711      -0.07574984
O        0.39419145       0.00000441      16.72049201       0.00726825      -0.00004011       0.06778765
O        1.97043419       1.97038596      10.15939985      -0.04305621       0.00031779      -0.16814629
O        0.39416160       1.97042684      14.77056635       0.21116907       0.00010310      -0.10876281
10
Lattice="3.940949890606662 0.0 0.0 0.0 3.940949890606662 0.0 0.0 0.0 26.940967945119528" Properties=species:S:1:pos:R:3:forces:R:3 tau=tau60 tau_p=6 tau_q=0 stage=B constraint=xy_fixed_z_free force_label=raw_dft energy=-15499.48761788875 free_energy=-15499.48761788875 stress="0.011173060019362127 0.0 -0.0022972303532290284 0.0 0.010626756238318455 9.181576151994517e-07 -0.0022972303532290284 9.181576151994517e-07 -0.0007657434510763427" pbc="T T T"
Sr       0.00003612       0.00009431      10.45242489       0.00178075      -0.00005734       0.10999076
Sr       2.36447194       3.94093589      15.12834270       0.03440419      -0.00008356      -0.00012753
Ti       1.97047269       1.97057450      11.96081067      -0.17213998      -0.00032962      -0.10412659
Ti       0.39382079       1.97041077      16.60932058       0.04427208       0.00008073      -0.05285083
O        0.00000902       1.97050521      11.94398873      -0.18876834      -0.00005425       0.14403988
O        2.36475793       1.97047857      16.71793090      -0.00466552      -0.00000977       0.11405619
O        1.97049401       3.94093312      12.19558404       0.12597197       0.00007533      -0.03481685
O        0.39419145       0.00000441      16.74023634       0.00616345      -0.00004808       0.08216372
O        1.97043419       1.97038596      10.13418922      -0.03808369       0.00032653      -0.13192896
O        0.39416160       1.97042684      14.79249189       0.19106510       0.00010002      -0.12639980
10
Lattice="3.940949890606662 0.0 0.0 0.0 3.940949890606662 0.0 0.0 0.0 26.940967945119528" Properties=species:S:1:pos:R:3:forces:R:3 tau=tau60 tau_p=6 tau_q=0 stage=B constraint=xy_fixed_z_free force_label=raw_dft energy=-15499.491641091852 free_energy=-15499.491641091852 stress="0.010960965610251054 0.0 -0.0021273711944171294 0.0 0.010355899741834615 9.181576151994517e-07 -0.0021273711944171294 9.181576151994517e-07 -0.00026351123556224264" pbc="T T T"
Sr       0.00003612       0.00009431      10.44163300       0.00199132      -0.00006196       0.03746971
Sr       2.36447194       3.94093589      15.15210853       0.03156132      -0.00008870      -0.04972488
Ti       1.97047269       1.97057450      11.93368892      -0.15858873      -0.00033219      -0.04698537
Ti       0.39382079       1.97041077      16.62650058       0.04080366       0.00008613      -0.01945708
O        0.00000902       1.97050521      11.93295381      -0.17722074      -0.00005836       0.12582876
O        2.36475793       1.97047857      16.74177911      -0.00447269      -0.00001106       0.08047681
O        1.97049401       3.94093312      12.16722171       0.11863121       0.00007945      -0.03298700
O        0.39419145       0.00000441      16.76219607       0.00536512      -0.00004654       0.05081683
O        1.97043419       1.97038596      10.10804395      -0.03405040       0.00033476      -0.06039110
O        0.39416160       1.97042684      14.80919427       0.17597967       0.00009822      -0.08504695
10
Lattice="3.940949890606662 0.0 0.0 0.0 3.940949890606662 0.0 0.0 0.0 26.940967945119528" Properties=species:S:1:pos:R:3:forces:R:3 tau=tau60 tau_p=6 tau_q=0 stage=B constraint=xy_fixed_z_free force_label=raw_dft energy=-15499.493174589394 free_energy=-15499.493174589394 stress="0.011123479508141357 0.0 -0.0020658546341987666 0.0 0.010341209219991425 9.181576151994517e-07 -0.0020658546341987666 9.181576151994517e-07 0.00018730415350068813" pbc="T T T"
Sr       0.00003612       0.00009431      10.43586184       0.00207874      -0.00006119       0.01082640
Sr       2.36447194       3.94093589      15.16084417       0.03096739      -0.00008947      -0.04411730
Ti       1.97047269       1.97057450      11.91989721      -0.15237052      -0.00033373      -0.01161136
Ti       0.39382079       1.97041077      16.63511585       0.03983642       0.00008228      -0.00350313
O        0.00000902       1.97050521      11.93219625      -0.17414699      -0.00006299       0.07889944
O        2.36475793       1.97047857      16.75579596      -0.00443361      -0.00001003       0.03967315
O        1.97049401       3.94093312      12.15119425       0.11468894       0.00008048      -0.03328344
O        0.39419145       0.00000441      16.77428108       0.00495554      -0.00004294       0.01605525
O        1.97043419       1.97038596      10.09410816      -0.03222492       0.00034041      -0.01224205
O        0.39416160       1.97042684      14.81602519       0.17064874       0.00009719      -0.04069722
10
Lattice="3.940949890606662 0.0 0.0 0.0 3.940949890606662 0.0 0.0 0.0 26.940967945119528" Properties=species:S:1:pos:R:3:forces:R:3 tau=tau60 tau_p=6 tau_q=0 stage=B constraint=xy_fixed_z_free force_label=raw_dft energy=-15499.493865078257 free_energy=-15499.493865078257 stress="0.011361282330478015 0.0 -0.002071363579889963 0.0 0.010328355013378632 9.181576151994517e-07 -0.002071363579889963 9.181576151994517e-07 0.0003975622473813626" pbc="T T T"
Sr       0.00003612       0.00009431      10.43594417       0.00214301      -0.00006094       0.00537669
Sr       2.36447194       3.94093589      15.16009079       0.03150270      -0.00009102      -0.02314044
Ti       1.97047269       1.97057450      11.91679775      -0.15092684      -0.00033090       0.00218929
Ti       0.39382079       1.97041077      16.63640064       0.04002745       0.00008150      -0.00002931
O        0.00000902       1.97050521      11.93795916      -0.17636302      -0.00006788       0.03276331
O        2.36475793       1.97047857      16.76020810      -0.00446986      -0.00001003       0.01182090
O        1.97049401       3.94093312      12.14440155       0.11334914       0.00008279      -0.02281983
O        0.39419145       0.00000441      16.77683856       0.00484139      -0.00004114      -0.00417110
O        1.97043419       1.97038596      10.09085315      -0.03179838       0.00034196       0.00857386
O        0.39416160       1.97042684      14.81582610       0.17169416       0.00009565      -0.01056363
10
Lattice="3.940949890606662 0.0 0.0 0.0 3.940949890606662 0.0 0.0 0.0 26.940967945119528" Properties=species:S:1:pos:R:3:forces:R:3 tau=tau60 tau_p=6 tau_q=0 stage=B constraint=xy_fixed_z_free force_label=raw_dft energy=-15499.494176240432 free_energy=-15499.494176240432 stress="0.01152104175552272 0.0 -0.002113598830189138 0.0 0.010253066088932278 9.181576151994517e-07 -0.002113598830189138 9.181576151994517e-07 0.000361754100388584" pbc="T T T"
Sr       0.00003612       0.00009431      10.44051199       0.00218467      -0.00005939       0.00613979
Sr       2.36447194       3.94093589      15.15443406       0.03244167      -0.00009050      -0.00481233
Ti       1.97047269       1.97057450      11.92066342      -0.15236383      -0.00033450       0.00255748
Ti       0.39382079       1.97041077      16.63249179       0.04071188       0.00007790      -0.00007019
O        0.00000902       1.97050521      11.94608446      -0.18123475      -0.00006865       0.00118091
O        2.36475793       1.97047857      16.75751873      -0.00453260      -0.00000900      -0.00043400
O        1.97049401       3.94093312      12.14482577       0.11385745       0.00008613      -0.00774493
O        0.39419145       0.00000441      16.77270113       0.00493266      -0.00003908      -0.00960307
O        1.97043419       1.97038596      10.09483857      -0.03226683       0.00034093       0.00916367
O        0.39416160       1.97042684      14.81125003       0.17626969       0.00009616       0.00362294
