10
Lattice="3.940949890606662 0.0 0.0 0.0 3.940949890606662 0.0 0.0 0.0 26.940967945119528" Properties=species:S:1:pos:R:3:forces:R:3 tau=tau34 tau_p=3 tau_q=4 stage=B constraint=xy_fixed_z_free force_label=raw_dft energy=-15499.167545482658 free_energy=-15499.167545482658 stress="0.009769197025722166 9.640654959594242e-05 0.0024000640061313666 9.640654959594242e-05 0.00793379995293846 0.0013267377539632078 0.0024000640061313666 0.0013267377539632078 -0.002175115390407501" pbc="T T T"
Sr       0.00003626       0.00009419      10.47871344      -0.00607963      -0.00423898      -0.63116983
Sr       1.18218684       1.57636577      15.20944033      -0.24434145      -0.10010924       0.20585229
Ti       1.97047258       1.97057465      11.83936462       0.17440898       0.12026386       0.03754325
Ti       3.15248562       3.54679066      16.65122108      -0.00791643      -0.01081535       0.23528911
O        0.00000906       1.97050529      12.07369586       0.26277291      -0.11114853      -0.18074752
O        1.18247295       3.54685845      16.82457874       0.00496506       0.00553816      -0.28279152
O        1.97049386       3.94093294      11.90090413      -0.13153018       0.12858370       0.48109274
O        3.15285647       1.57638429      16.83126968       0.01931053       0.00325116      -0.31924102
O        1.97043435       1.97038588      10.04152259       0.02335359       0.02191840       0.00840237
O        3.15282651       3.54680682      14.82460894      -0.09494313      -0.05324318       0.44576964
10
Lattice="3.940949890606662 0.0 0.0 0.0 3.940949890606662 0.0 0.0 0.0 26.940967945119528" Properties=species:S:1:pos:R:3:forces:R:3 tau=tau34 tau_p=3 tau_q=4 stage=B constraint=xy_fixed_z_free force_label=raw_dft energy=-15499.188452669167 free_energy=-15499.188452669167 stress="0.009907838825617283 9.181576151994517e-05 0.0023752737505209815 9.181576151994517e-05 0.00817160277527512 0.0013386738029608006 0.0023752737505209815 0.0013386738029608006 -0.002583695529171257" pbc="T T T"
Sr       0.00003612       0.00009431      10.46572278      -0.00520623      -0.00364428      -0.49166177
Sr       1.18218697       1.57636594      15.21367739      -0.24215832      -0.10095797       0.17840756
Ti       1.97047269       1.97057450      11.84013750       0.17383691       0.11913052       0.08873108
Ti       3.15248573       3.54679074      16.65606384      -0.00785215      -0.01119767       0.17482576
O        0.00000902       1.97050521      12.06997570       0.25720776      -0.10821285      -0.20217355
O        1.18247295       3.54685853      16.81875865       0.00480796       0.00572019      -0.19228586
O        1.97049401       3.94093312      11.91080583      -0.13153250       0.12896679       0.37549650
O        3.15285639       1.57638437      16.82469918       0.01935244       0.00324396      -0.22633395
O        1.97043419       1.97038596      10.04169543       0.02326540       0.02134504      -0.05232683
O        3.15282654       3.54680681      14.83378366      -0.09172153      -0.05439374       0.34732158
10
Lattice="3.940949890606662 0.0 0.0 0.0 3.940949890606662 0.0 0.0 0.0 26.940967945119528" Properties=species:S:1:pos:R:3:forces:R:3 tau=tau34 tau_p=3 tau_q=4 stage=B constraint=xy_fixed_z_free force_label=raw_dft energy=-15499.206031903426 free_energy=-15499.206031903426 stress="0.010056580359279595 8.630681582874845e-05 0.0023504834949105964 8.630681582874845e-05 0.008519584511435712 0.001357955112879989 0.0023504834949105964 0.001357955112879989 -0.002751718372752757" pbc="T T T"
Sr       0.00003612       0.00009431      10.45143317      -0.00424541      -0.00298685      -0.35866401
Sr       1.18218697       1.57636594      15.21883138      -0.23999397      -0.10221858       0.14604072
Ti       1.97047269       1.97057450      11.84261346       0.17377264       0.11816996       0.04951996
Ti       3.15248573       3.54679074      16.66115959      -0.00778427      -0.01162396       0.12563156
O        0.00000902       1.97050521      12.06420592       0.25097078      -0.10488121      -0.20253042
O        1.18247295       3.54685853      16.81312163       0.00466141       0.00596367      -0.09863677
O        1.97049401       3.94093312      11.92171795      -0.13179089       0.12967693       0.27732896
O        3.15285639       1.57638437      16.81808237       0.01942314       0.00323162      -0.12938820
O        1.97043419       1.97038596      10.04027645       0.02326797       0.02074906      -0.04465878
O        3.15282654       3.54680681      14.84387804      -0.08828140      -0.05608013       0.23535698
10
Lattice="3.940949890606662 0.0 0.0 0.0 3.940949890606662 0.0 0.0 0.0 26.940967945119528" Properties=species:S:1:pos:R:3:forces:R:3 tau=tau34 tau_p=3 tau_q=4 stage=B constraint=xy_fixed_z_free force_label=raw_dft energy=-15499.222171247313 free_energy=-15499.222171247313 stress="0.010154823224105936 7.98797125223523e-05 0.002307330086996222 7.98797125223523e-05 0.009015389623643415 0.001384581683720773 0.002307330086996222 0.001384581683720773 -0.0030069661897782047" pbc="T T T"
Sr       0.00003612       0.00009431      10.42999875      -0.00290226      -0.00209031      -0.16864534
Sr       1.18218697       1.57636594      15.22719876      -0.23591568      -0.10397361       0.09429418
Ti       1.97047269       1.97057450      11.84564101       0.17340162       0.11653474      -0.00359286
Ti       3.15248573       3.54679074      16.66873338      -0.00755647      -0.01223768       0.06243924
O        0.00000902       1.97050521      12.05334595       0.24109080      -0.09973155      -0.19434455
O        1.18247295       3.54685853      16.80635268       0.00443515       0.00631823       0.02989396
O        1.97049401       3.94093312      11.93822569      -0.13246555       0.13085758       0.13653792
O        3.15285639       1.57638437      16.80960588       0.01940926       0.00321259       0.00523554
O        1.97043419       1.97038596      10.03794019       0.02334742       0.01980829      -0.04411319
O        3.15282654       3.54680681      14.85827768      -0.08284454      -0.05869829       0.08229458
10
Lattice="3.940949890606662 0.0 0.0 0.0 3.940949890606662 0.0 0.0 0.0 26.940967945119528" Properties=species:S:1:pos:R:3:forces:R:3 tau=tau34 tau_p=3 tau_q=4 stage=B constraint=xy_fixed_z_free force_label=raw_dft energy=-15499.228263740102 free_energy=-15499.228263740102 stress="0.010157577696951534 7.437076683115559e-05 0.002256831418160252 7.437076683115559e-05 0.009537821306691905 0.0014093719393311584 0.002256831418160252 0.0014093719393311584 -0.0031345900982909284" pbc="T T T"
Sr       0.00003612       0.00009431      10.40986030      -0.00173858      -0.00134752      -0.00574204
Sr       1.18218697       1.57636594      15.23598531      -0.23079328      -0.10547257       0.04255227
Ti       1.97047269       1.97057450      11.84737323       0.17285707       0.11469537      -0.05518076
Ti       3.15248573       3.54679074      16.67599763      -0.00726285      -0.01262772       0.01216337
O        0.00000902       1.97050521      12.03953731       0.23089741      -0.09462868      -0.17210810
O        1.18247295       3.54685853      16.80280299       0.00418884       0.00660671       0.13172044
O        1.97049401       3.94093312      11.95396400      -0.13354336       0.13215856       0.01232535
O        3.15285639       1.57638437      16.80408020       0.01918840       0.00316888       0.11459047
O        1.97043419       1.97038596      10.03497135       0.02351531       0.01885570      -0.04794567
O        3.15282654       3.54680681      14.87074764      -0.07730844      -0.06140900      -0.03237559
10
Lattice="3.940949890606662 0.0 0.0 0.0 3.940949890606662 0.0 0.0 0.0 26.940967945119528" Properties=species:S:1:pos:R:3:forces:R:3 tau=tau34 tau_p=3 tau_q=4 stage=B constraint=xy_fixed_z_free force_label=raw_dft energy=-15499.229943362772 free_energy=-15499.229943362772 stress="0.01011442428903716 7.345260921595614e-05 0.002233877477780266 7.345260921595614e-05 0.009719616514501397 0.0014157990426375546 0.002233877477780266 0.0014157990426375546 -0.003079500641378961" pbc="T T T"
Sr       0.00003612       0.00009431      10.40470547      -0.00149844      -0.00120610       0.02498727
Sr       1.18218697       1.57636594      15.23906690      -0.22821137      -0.10567131       0.03129958
Ti       1.97047269       1.97057450      11.84646493       0.17241664       0.11387082      -0.06825893
Ti       3.15248573       3.54679074      16.67811254      -0.00704019      -0.01267400       0.00918167
O        0.00000902       1.97050521      12.03242875       0.22710657      -0.09285539      -0.15287162
O        1.18247295       3.54685853      16.80476197       0.00410914       0.00664245       0.13770829
O        1.97049401       3.94093312      11.95815616      -0.13417945       0.13267047      -0.01962137
O        3.15285639       1.57638437      16.80518305       0.01894749       0.00315114       0.12406190
O        1.97043419       1.97038596      10.03325124       0.02362921       0.01852711      -0.05119838
O        3.15282654       3.54680681      14.87318896      -0.07527959      -0.06245518      -0.03528865
10
Lattice="3.940949890606662 0.0 0.0 0.0 3.940949890606662 0.0 0.0 0.0 26.940967945119528" Properties=species:S:1:pos:R:3:forces:R:3 tau=tau34 tau_p=3 tau_q=4 stage=B constraint=xy_fixed_z_free force_label=raw_dft energy=-15499.231873602284 free_energy=-15499.231873602284 stress="0.010060252989740393 7.345260921595614e-05 0.002209087222169881 7.345260921595614e-05 0.009886721200467696 0.0014194716730983525 0.002209087222169881 0.0014194716730983525 -0.0029876848798590155" pbc="T T T"
Sr       0.00003612       0.00009431      10.40079348      -0.00135163      -0.00112357       0.04061726
Sr       1.18218697       1.57636594      15.24201313      -0.22532480      -0.10567568       0.02447536
Ti       1.97047269       1.97057450      11.84468509       0.17185511       0.11295499      -0.07551047
Ti       3.15248573       3.54679074      16.68004544      -0.00679800      -0.01268377       0.01436141
O        0.00000902       1.97050521      12.02460933       0.22334402      -0.09115795      -0.12956354
O        1.18247295       3.54685853      16.80816640       0.00402635       0.00664887       0.12954786
O        1.97049401       3.94093312      11.96128576      -0.13480320       0.13309521      -0.04449191
O        3.15285639       1.57638437      16.80771232       0.01863150       0.00314086       0.11952776
O        1.97043419       1.97038596      10.03115204       0.02374157       0.01821678      -0.05433975
O        3.15282654       3.54680681      14.87485696      -0.07332041      -0.06341575      -0.02462371
10
Lattice="3.940949890606662 0.0 0.0 0.0 3.940949890606662 0.0 0.0 0.0 26.940967945119528" Properties=species:S:1:pos:R:3:forces:R:3 tau=tau34 tau_p=3 tau_q=4 stage=B constraint=xy_fixed_z_free force_label=raw_dft energy=-15499.234633652954 free_energy=-15499.234633652954 stress="0.009962928282529251 7.253445160075668e-05 0.0021723609175619027 7.253445160075668e-05 0.010096979294348371 0.0014231443035591501 0.0021723609175619027 0.0014231443035591501 -0.0028426159766575024" pbc="T T T"
Sr       0.00003612       0.00009431      10.39626067      -0.00122539      -0.00105801       0.04810997
Sr       1.18218697       1.57636594      15.24616925      -0.22094441      -0.10542886       0.01948613
Ti       1.97047269       1.97057450      11.84123753       0.17081252       0.11153008      -0.08166029
Ti       3.15248573       3.54679074      16.68290959      -0.00644113      -0.01264494       0.02784685
O        0.00000902       1.97050521      12.01288020       0.21800538      -0.08878971      -0.09363649
O        1.18247295       3.54685853      16.81420229       0.00391836       0.00662136       0.10825964
O        1.97049401       3.94093312      11.96457501      -0.13552593       0.13349116      -0.07303347
O        3.15285639       1.57638437      16.81250457       0.01812885       0.00312595       0.10345348
O        1.97043419       1.97038596      10.02765694       0.02387629       0.01777815      -0.05820181
O        3.15282654       3.54680681      14.87692391      -0.07060455      -0.06462519      -0.00062375
10
Lattice="3.940949890606662 0.0 0.0 0.0 3.940949890606662 0.0 0.0 0.0 26.940967945119528" Properties=species:S:1:pos:R:3:forces:R:3 tau=tau34 tau_p=3 tau_q=4 stage=B constraint=xy_fixed_z_free force_label=raw_dft energy=-15499.23807589301 free_energy=-15499.23807589301 stress="0.009808677803175743 7.161629398555724e-05 0.0021163533030347363 7.161629398555724e-05 0.010369672106062608 0.0014231443035591501 0.0021163533030347363 0.0014231443035591501 -0.002625012621855232" pbc="T T T"
Sr       0.00003612       0.00009431      10.39050343      -0.00109375      -0.00102356       0.04383679
Sr       1.18218697       1.57636594      15.25235160      -0.21426982      -0.10472926       0.01640107
Ti       1.97047269       1.97057450      11.83504801       0.16885283       0.10920889      -0.08374443
Ti       3.15248573       3.54679074      16.68763965      -0.00598141      -0.01246754       0.04954850
O        0.00000902       1.97050521      11.99528650       0.21025479      -0.08537168      -0.03991638
O        1.18247295       3.54685853      16.82406171       0.00376461       0.00654500       0.07161551
O        1.97049401       3.94093312      11.96784079      -0.13616382       0.13367165      -0.10744872
O        3.15285639       1.57638437      16.82059101       0.01737886       0.00309072       0.07428071
O        1.97043419       1.97038596      10.02179654       0.02401462       0.01712740      -0.06259736
O        3.15282654       3.54680681      14.88020072      -0.06675664      -0.06605164       0.03802404
10
Lattice="3.940949890606662 0.0 0.0 0.0 3.940949890606662 0.0 0.0 0.0 26.940967945119528" Properties=species:S:1:pos:R:3:forces:R:3 tau=tau34 tau_p=3 tau_q=4 stage=B constraint=xy_fixed_z_free force_label=raw_dft energy=-15499.241556773233 free_energy=-15499.241556773233 stress="0.00956169340468709 6.886182113995888e-05 0.0020318828024363865 6.886182113995888e-05 0.010692863586612814 0.001416717200252754 0.0020318828024363865 0.001416717200252754 -0.002325693239300211" pbc="T T T"
Sr       0.00003612       0.00009431      10.38264164      -0.00097033      -0.00103024       0.01818516
Sr       1.18218697       1.57636594      15.26191723      -0.20410934      -0.10317863       0.01701607
Ti       1.97047269       1.97057450      11.82414141       0.16527617       0.10540057      -0.07819625
Ti       3.15248573       3.54679074      16.69598416      -0.00545434      -0.01198725       0.07987903
O        0.00000902       1.97050521      11.96889596       0.19893396      -0.08041279       0.03887174
O        1.18247295       3.54685853      16.83979986       0.00355558       0.00639613       0.01657719
O        1.97049401       3.94093312      11.97010766      -0.13617437       0.13312375      -0.14869230
O        3.15285639       1.57638437      16.83383079       0.01628897       0.00300665       0.02983174
O        1.97043419       1.97038596      10.01175608       0.02406064       0.01616658      -0.06548368
O        3.15282654       3.54680681      14.88624516      -0.06140694      -0.06748477       0.09201078
10
Lattice="3.940949890606662 0.0 0.0 0.0 3.940949890606662 0.0 0.0 0.0 26.940967945119528" Properties=species:S:1:pos:R:3:forces:R:3 tau=tau34 tau_p=3 tau_q=4 stage=B constraint=xy_fixed_z_free force_label=raw_dft energy=-15499.243681165974 free_energy=-15499.243681165974 stress="0.009369798463110405 6.518919067916107e-05 0.001963939138911627 6.518919067916107e-05 0.010857213799733516 0.0014011085207943632 0.001963939138911627 0.0014011085207943632 -0.002115435145419537" pbc="T T T"
Sr       0.00003612       0.00009431      10.37645391      -0.00095157      -0.00105647      -0.01860322
Sr       1.18218697       1.57636594      15.27026193      -0.19578205      -0.10121559       0.02189834
Ti       1.97047269       1.97057450      11.81338363       0.16152004       0.10182520      -0.06656355
Ti       3.15248573       3.54679074      16.70474737      -0.00492803      -0.01157562       0.09579828
O        0.00000902       1.97050521      11.94815066       0.19005955      -0.07649778       0.09657243
O        1.18247295       3.54685853      16.85325234       0.00336300       0.00626758      -0.02080125
O        1.97049401       3.94093312      11.96832414      -0.13476026       0.13151887      -0.16962133
O        3.15285639       1.57638437      16.84555415       0.01541376       0.00293929      -0.00015349
O        1.97043419       1.97038596      10.00193900       0.02381099       0.01543202      -0.06260970
O        3.15282654       3.54680681      14.89325283      -0.05774543      -0.06763750       0.12408324
10
Lattice="3.940949890606662 0.0 0.0 0.0 3.940949890606662 0.0 0.0 0.0 26.940967945119528" Properties=species:S:1:pos:R:3:forces:R:3 tau=tau34 tau_p=3 tau_q=4 stage=B constraint=xy_fixed_z_free force_label=raw_dft energy=-15499.246557137134 free_energy=-15499.246557137134 stress="0.009195348516222508 5.968024498796436e-05 0.0018950773177716681 5.968024498796436e-05 0.010906794310954288 0.0013708093194927814 0.0018950773177716681 0.0013708093194927814 -0.0019419033561468403" pbc="T T T"
Sr       0.00003612       0.00009431      10.36907035      -0.00097599      -0.00108706      -0.07004996
Sr       1.18218697       1.57636594      15.28032836      -0.18674565      -0.09820457       0.03238047
Ti       1.97047269       1.97057450      11.79931997       0.15634210       0.09766104      -0.04509869
Ti       3.15248573       3.54679074      16.71719557      -0.00455008      -0.01103003       0.09810790
O        0.00000902       1.97050521      11.92737111       0.18095218      -0.07245960       0.14396455
O        1.18247295       3.54685853      16.86834164       0.00318585       0.00608220      -0.04606980
O        1.97049401       3.94093312      11.96116698      -0.13115814       0.12804608      -0.17691607
O        3.15285639       1.57638437      16.85928418       0.01451465       0.00280533      -0.01944731
O        1.97043419       1.97038596       9.98902585       0.02319829       0.01462598      -0.05378722
O        3.15282654       3.54680681      14.90421594      -0.05476321      -0.06643911       0.13691587
10
Lattice="3.940949890606662 0.0 0.0 0.0 3.940949890606662 0.0 0.0 0.0 26.940967945119528" Properties=species:S:1:pos:R:3:forces:R:3 tau=tau34 tau_p=3 tau_q=4 stage=B constraint=xy_fixed_z_free force_label=raw_dft energy=-15499.251112186737 free_energy=-15499.251112186737 stress="0.009042934352099399 5.2334984066368754e-05 0.0018170339204797148 5.2334984066368754e-05 0.010839768805044727 0.0013203106506568115 0.0018170339204797148 0.0013203106506568115 -0.0017885710344085319" pbc="T T T"
Sr       0.00003612       0.00009431      10.35819389      -0.00108578      -0.00110018      -0.13473146
Sr       1.18218697       1.57636594      15.29411058      -0.17600152      -0.09364369       0.04832286
Ti       1.97047269       1.97057450      11.77976771       0.14906613       0.09263145      -0.01508003
Ti       3.15248573       3.54679074      16.73576664      -0.00438296      -0.01058086       0.08561954
O        0.00000902       1.97050521      11.90451361       0.17065440      -0.06783701       0.17983067
O        1.18247295       3.54685853      16.88712400       0.00296294       0.00574487      -0.05715897
O        1.97049401       3.94093312      11.94639801      -0.12457226       0.12198239      -0.16968381
O        3.15285639       1.57638437      16.87707844       0.01348492       0.00263512      -0.02593009
O        1.97043419       1.97038596       9.97074880       0.02213771       0.01369472      -0.03716941
O        3.15282654       3.54680681      14.92161829      -0.05226333      -0.06352707       0.12598123
10
Lattice="3.940949890606662 0.0 0.0 0.0 3.940949890606662 0.0 0.0 0.0 26.940967945119528" Properties=species:S:1:pos:R:3:forces:R:3 tau=tau34 tau_p=3 tau_q=4 stage=B constraint=xy_fixed_z_free force_label=raw_dft energy=-15499.258991515047 free_energy=-15499.258991515047 stress="0.008917146758817076 3.856261983837697e-05 0.0017031823761949829 3.856261983837697e-05 0.010606556770784066 0.0012257404162912679 0.0017031823761949829 0.0012257404162912679 -0.001617793717981434" pbc="T T T"
Sr       0.00003612       0.00009431      10.33646580      -0.00124236      -0.00102638      -0.22508517
Sr       1.18218697       1.57636594      15.31884982      -0.16000284      -0.08565450       0.07531944
Ti       1.97047269       1.97057450      11.74563893       0.13691716       0.08569744       0.03791400
Ti       3.15248573       3.54679074      16.77005289      -0.00422381      -0.01025253       0.04354112
O        0.00000902       1.97050521      11.87174531       0.15557720      -0.06120794       0.20049797
O        1.18247295       3.54685853      16.91773208       0.00261276       0.00505787      -0.04757055
O        1.97049401       3.94093312      11.91459329      -0.11192063       0.11031755      -0.14041900
O        3.15285639       1.57638437      16.90710761       0.01190858       0.00229420      -0.01329646
O        1.97043419       1.97038596       9.93819669       0.02006489       0.01233435      -0.00768168
O        3.15282654       3.54680681      14.95493753      -0.04969120      -0.05755980       0.07678034
10
Lattice="3.940949890606662 0.0 0.0 0.0 3.940949890606662 0.0 0.0 0.0 26.940967945119528" Properties=species:S:1:pos:R:3:forces:R:3 tau=tau34 tau_p=3 tau_q=4 stage=B constraint=xy_fixed_z_free force_label=raw_dft energy=-15499.267830180697 free_energy=-15499.267830180697 stress="0.008977745161420239 2.2953940379986292e-05 0.00157372215245186 2.2953940379986292e-05 0.010249393458471479 0.0010944438773177463 0.00157372215245186 0.0010944438773177463 -0.0014323258797111446" pbc="T T T"
Sr       0.00003612       0.00009431      10.29988529      -0.00104644      -0.00087803      -0.29673513
Sr       1.18218697       1.57636594      15.35544906      -0.14133688      -0.07494123       0.10717464
Ti       1.97047269       1.97057450      11.69887091       0.12158901       0.07571230       0.09234066
Ti       3.15248573       3.54679074      16.81978044      -0.00514889      -0.00882300      -0.03662819
O        0.00000902       1.97050521      11.83463517       0.13816517      -0.05361753       0.17455554
O        1.18247295       3.54685853      16.95834503       0.00223043       0.00437653      -0.00193013
O        1.97049401       3.94093312      11.86316391      -0.09438263       0.09449627      -0.08232030
O        3.15285639       1.57638437      16.94838155       0.01025125       0.00188745       0.03054316
O        1.97043419       1.97038596       9.89209669       0.01702405       0.01072407       0.03165311
O        3.15282654       3.54680681      15.00471190      -0.04734532      -0.04893658      -0.01865310
10
Lattice="3.940949890606662 0.0 0.0 0.0 3.940949890606662 0.0 0.0 0.0 26.940967945119528" Properties=species:S:1:pos:R:3:forces:R:3 tau=tau34 tau_p=3 tau_q=4 stage=B constraint=xy_fixed_z_free force_label=raw_dft energy=-15499.273920904749 free_energy=-15499.273920904749 stress="0.009306445587661643 1.5608679458390678e-05 0.001500269543235904 1.5608679458390678e-05 0.010110751658576361 0.0010026281157978012 0.001500269543235904 0.0010026281157978012 -0.0012615485632840467" pbc="T T T"
Sr       0.00003612       0.00009431      10.26623819      -0.00066849      -0.00069805      -0.27821316
Sr       1.18218697       1.57636594      15.38415572      -0.13040944      -0.06765961       0.11179516
Ti       1.97047269       1.97057450      11.66790051       0.11088114       0.06961930       0.10131123
Ti       3.15248573       3.54679074      16.85478374      -0.00514581      -0.00796708      -0.07723260
O        0.00000902       1.97050521      11.81501805       0.12810856      -0.04934564       0.11149023
O        1.18247295       3.54685853      16.98600830       0.00192987       0.00393276       0.04276259
O        1.97049401       3.94093312      11.82266961      -0.08245965       0.08371743      -0.03679094
O        3.15285639       1.57638437      16.97770755       0.00930019       0.00163728       0.06861863
O        1.97043419       1.97038596       9.85988535       0.01489183       0.00971568       0.04830409
O        3.15282654       3.54680681      15.04095295      -0.04642821      -0.04295208      -0.09204524
10
Lattice="3.940949890606662 0.0 0.0 0.0 3.940949890606662 0.0 0.0 0.0 26.940967945119528" Properties=species:S:1:pos:R:3:forces:R:3 tau=tau34 tau_p=3 tau_q=4 stage=B constraint=xy_fixed_z_free force_label=raw_dft energy=-15499.279407263963 free_energy=-15499.279407263963 stress="0.009861930944857312 9.181576151994517e-06 0.0014222261459439507 9.181576151994517e-06 0.01018236795256192 0.000912648669508255 0.0014222261459439507 0.000912648669508255 -0.0009429478708098369" pbc="T T T"
Sr       0.00003612       0.00009431      10.22169446      -0.00030622      -0.00034247      -0.19603505
Sr       1.18218697       1.57636594      15.41935667      -0.11923979      -0.06017898       0.09890571
Ti       1.97047269       1.97057450      11.63545135       0.10046226       0.06402021       0.09701106
Ti       3.15248573       3.54679074      16.89222924      -0.00486556      -0.00781692      -0.10352187
O        0.00000902       1.97050521      11.79285952       0.11751510      -0.04495445       0.03405555
O        1.18247295       3.54685853      17.01848045       0.00168022       0.00333472       0.07547345
O        1.97049401       3.94093312      11.77878074      -0.07117225       0.07325510      -0.00430788
O        3.15285639       1.57638437      17.01226413       0.00823884       0.00149638       0.09350614
O        1.97043419       1.97038596       9.82485035       0.01290128       0.00882943       0.04636445
O        3.15282654       3.54680681      15.07935305      -0.04521362      -0.03764301      -0.14145207
10
Lattice="3.940949890606662 0.0 0.0 0.0 3.940949890606662 0.0 0.0 0.0 26.940967945119528" Properties=species:S:1:pos:R:3:forces:R:3 tau=tau34 tau_p=3 tau_q=4 stage=B constraint=xy_fixed_z_free force_label=raw_dft energy=-15499.283252096448 free_energy=-15499.283252096448 stress="0.01044863366096976 6.427103306396162e-06 0.0013763182651839781 6.427103306396162e-06 0.010469751286119348 0.0008621500006722851 0.0013763182651839781 0.0008621500006722851 -0.00048295090559491156" pbc="T T T"
Sr       0.00003612       0.00009431      10.18526330       0.00012624      -0.00003317      -0.08183230
Sr       1.18218697       1.57636594      15.44609317      -0.11228367      -0.05576568       0.06506511
Ti       1.97047269       1.97057450      11.61700821       0.09503003       0.06000389       0.05124080
Ti       3.15248573       3.54679074      16.91418169      -0.00524119      -0.00662290      -0.08179965
O        0.00000902       1.97050521      11.77824230       0.11096856      -0.04229233      -0.01827283
O        1.18247295       3.54685853      17.04201507       0.00158226       0.00301488       0.06914853
O        1.97049401       3.94093312      11.75078991      -0.06484991       0.06719115       0.00676226
O        3.15285639       1.57638437      17.03758039       0.00757730       0.00131512       0.08165567
O        1.97043419       1.97038596       9.80296556       0.01183273       0.00832626       0.03277180
O        3.15282654       3.54680681      15.10118034      -0.04474234      -0.03513695      -0.12473938
10
Lattice="3.940949890606662 0.0 0.0 0.0 3.940949890606662 0.0 0.0 0.0 26.940967945119528" Properties=species:S:1:pos:R:3:forces:R:3 tau=tau34 tau_p=3 tau_q=4 stage=B constraint=xy_fixed_z_free force_label=raw_dft energy=-15499.285154716406 free_energy=-15499.285154716406 stress="0.010848950381196721 5.5089456911967096e-06 0.001341428275806399 5.5089456911967096e-06 0.01079936986997595 0.0008346052722163016 0.001341428275806399 0.0008346052722163016 1.0099733767193969e-05" pbc="T T T"
Sr       0.00003612       0.00009431      10.15931635       0.00041138       0.00023063       0.00800436
Sr       1.18218697       1.57636594      15.46561604      -0.10726051      -0.05316579       0.02482452
Ti       1.97047269       1.97057450      11.60583736       0.09189868       0.05760711       0.00265415
Ti       3.15248573       3.54679074      16.92632760      -0.00545742      -0.00603798      -0.04193058
O        0.00000902       1.97050521      11.76496940       0.10627166      -0.04042700      -0.03157109
O        1.18247295       3.54685853      17.06027063       0.00152132       0.00284698       0.03330607
O        1.97049401       3.94093312      11.73489945      -0.06152650       0.06391325       0.00593179
O        3.15285639       1.57638437      17.05689605       0.00710422       0.00124159       0.04212701
O        1.97043419       1.97038596       9.78939385       0.01126169       0.00794060       0.01073821
O        3.15282654       3.54680681      15.11179324      -0.04422426      -0.03414939      -0.05408444
10
Lattice="3.940949890606662 0.0 0.0 0.0 3.940949890606662 0.0 0.0 0.0 26.940967945119528" Properties=species:S:1:pos:R:3:forces:R:3 tau=tau34 tau_p=3 tau_q=4 stage=B constraint=xy_fixed_z_free force_label=raw_dft energy=-15499.285528328706 free_energy=-15499.285528328706 stress="0.010879249582498304 6.427103306396162e-06 0.0013239832811176094 6.427103306396162e-06 0.010915057729491081 0.000827260011294706 0.0013239832811176094 0.000827260011294706 0.00017536810450309527" pbc="T T T"
Sr       0.00003612       0.00009431      10.15226425       0.00045097       0.00027074       0.02273395
Sr       1.18218697       1.57636594      15.47225167      -0.10513344      -0.05240345       0.01190112
Ti       1.97047269       1.97057450      11.60144111       0.09093709       0.05674656      -0.00853529
Ti       3.15248573       3.54679074      16.92956214      -0.00547851      -0.00589785      -0.01264134
O        0.00000902       1.97050521      11.75719353       0.10419961      -0.03962687      -0.01871557
O        1.18247295       3.54685853      17.06779549       0.00150358       0.00279582       0.00497200
O        1.97049401       3.94093312      11.73138216      -0.06084901       0.06315915       0.00148353
O        3.15285639       1.57638437      17.06453406       0.00690264       0.00122667       0.01345767
O        1.97043419       1.97038596       9.78485819       0.01115859       0.00780150       0.00025377
O        3.15282654       3.54680681      15.11403737      -0.04369178      -0.03407252      -0.01490957
