Sr Ti O
 1.0000000000000000
     3.9409498906066620    0.0000000000000000    0.0000000000000000
     0.0000000000000000    3.9409498906066620    0.0000000000000000
     0.0000000000000000    0.0000000000000000   26.9409679451195281
 Sr  Ti  O
   2   2   6
Cartesian
  0.0000361212000000  0.0000943054000000  9.9395524614999999
  1.5762819608000000  1.9704609346999999 15.6866840900000000
  1.9704726885999999  1.9705745045000000 11.3905915166000007
  3.5465807222999999  3.9408857300000002 17.1392798185999986
  0.0000090208000000  1.9705052130000000 11.5304754970999994
  1.5765679447000001  0.0000036085000000 17.2807024608999988
  1.9704940097000001  3.9409331233999998 11.5356660391000005
  3.5469513860999999  1.9704793643000000 17.2748266106000017
  1.9704341934000000  1.9703859550000000  9.5739810026000001
  3.5469215339000000  3.9409018012999999 15.3235604658000000
