10
Lattice="3.940949890606662 0.0 0.0 0.0 3.940949890606662 0.0 0.0 0.0 26.940967945119528" Properties=species:S:1:pos:R:3:forces:R:3 tau=tau45 tau_p=4 tau_q=5 stage=B constraint=xy_fixed_z_free force_label=raw_dft energy=-15499.169749060522 free_energy=-15499.169749060522 stress="0.010253066088932278 0.0 0.0010898530892417492 0.0 0.010287037920694657 1.8363152303989035e-06 0.0010898530892417492 1.8363152303989035e-06 -0.0027085649648383825" pbc="T T T"
Sr       0.00003626       0.00009419      10.31346350      -0.00004191      -0.00007816       0.03556890
Sr       1.57628183       1.97046076      15.33834052      -0.11051141      -0.00013447       0.01329183
Ti       1.97047258       1.97057465      11.74858050       0.08522487      -0.00012984      -0.07406243
Ti       3.54658061       3.94088565      16.76704875      -0.00174784       0.00014270       0.04139759
O        0.00000906       1.97050529      11.91083453       0.09855064      -0.00015555      -0.09778394
O        1.57656794       0.00000355      16.90154746       0.00150564      -0.00001286       0.09169788
O        1.97049386       3.94093294      11.89526896      -0.06367388      -0.00000231      -0.08384856
O        3.54695145       1.97047928      16.90250787       0.00884202      -0.00009590       0.08386784
O        1.97043435       1.97038588       9.93661135       0.01091099       0.00038927      -0.03320837
O        3.54692150       3.94090181      14.96111556      -0.02905912       0.00007688       0.02307899
10
Lattice="3.940949890606662 0.0 0.0 0.0 3.940949890606662 0.0 0.0 0.0 26.940967945119528" Properties=species:S:1:pos:R:3:forces:R:3 tau=tau45 tau_p=4 tau_q=5 stage=B constraint=xy_fixed_z_free force_label=raw_dft energy=-15499.170580368298 free_energy=-15499.170580368298 stress="0.010226439518091492 0.0 0.0010870986163961508 0.0 0.010266838453160268 1.8363152303989035e-06 0.0010870986163961508 1.8363152303989035e-06 -0.002717746540990377" pbc="T T T"
Sr       0.00003612       0.00009431      10.31419563      -0.00008793      -0.00007045       0.01930718
Sr       1.57628196       1.97046093      15.33861433      -0.11010801      -0.00013395       0.02028806
Ti       1.97047269       1.97057450      11.74705633       0.08500376      -0.00014218      -0.06545334
Ti       3.54658072       3.94088573      16.76790085      -0.00174038       0.00013781       0.04765977
O        0.00000902       1.97050521      11.90882187       0.09825934      -0.00015401      -0.08874471
O        1.57656794       0.00000361      16.90343492       0.00150152      -0.00001106       0.08116047
O        1.97049401       3.94093312      11.89354341      -0.06352810      -0.00000077      -0.07568479
O        3.54695139       1.97047936      16.90423407       0.00880269      -0.00008922       0.07410871
O        1.97043419       1.97038596       9.93592780       0.01090688       0.00038309      -0.04087257
O        3.54692153       3.94090180      14.96159075      -0.02900976       0.00008099       0.02823097
10
Lattice="3.940949890606662 0.0 0.0 0.0 3.940949890606662 0.0 0.0 0.0 26.940967945119528" Properties=species:S:1:pos:R:3:forces:R:3 tau=tau45 tau_p=4 tau_q=5 stage=B constraint=xy_fixed_z_free force_label=raw_dft energy=-15499.171425009656 free_energy=-15499.171425009656 stress="0.010168595588333927 0.0 0.0010843441435505524 0.0 0.010213585311478701 1.8363152303989035e-06 0.0010843441435505524 1.8363152303989035e-06 -0.002742536796600762" pbc="T T T"
Sr       0.00003612       0.00009431      10.31476987      -0.00012418      -0.00007739       0.00320745
Sr       1.57628196       1.97046093      15.33906173      -0.10965729      -0.00013190       0.02661812
Ti       1.97047269       1.97057450      11.74541096       0.08470988      -0.00013961      -0.06077265
Ti       3.54658072       3.94088573      16.76901775      -0.00171930       0.00013447       0.05094384
O        0.00000902       1.97050521      11.90660805       0.09791661      -0.00015298      -0.07923266
O        1.57656794       0.00000361      16.90547425       0.00149253      -0.00001028       0.07180294
O        1.97049401       3.94093312      11.89165244      -0.06334093       0.00000360      -0.06711505
O        3.54695139       1.97047936      16.90609709       0.00875229      -0.00009205       0.06554256
O        1.97043419       1.97038596       9.93498482       0.01090019       0.00038438      -0.04555866
O        3.54692153       3.94090180      14.96224300      -0.02892954       0.00008228       0.03456411
10
Lattice="3.940949890606662 0.0 0.0 0.0 3.940949890606662 0.0 0.0 0.0 26.940967945119528" Properties=species:S:1:pos:R:3:forces:R:3 tau=tau45 tau_p=4 tau_q=5 stage=B constraint=xy_fixed_z_free force_label=raw_dft energy=-15499.172604623145 free_energy=-15499.172604623145 stress="0.010111669816191562 0.0 0.001079753355474555 0.0 0.01016308664264273 1.8363152303989035e-06 0.001079753355474555 1.8363152303989035e-06 -0.002748045742291959" pbc="T T T"
Sr       0.00003612       0.00009431      10.31524261      -0.00018255      -0.00007945      -0.01992091
Sr       1.57628196       1.97046093      15.33996737      -0.10893918      -0.00013164       0.03472198
Ti       1.97047269       1.97057450      11.74286723       0.08425505      -0.00014527      -0.05461897
Ti       3.54658072       3.94088573      16.77091903      -0.00167970       0.00013447       0.05356482
O        0.00000902       1.97050521      11.90328733       0.09735456      -0.00015067      -0.06598119
O        1.57656794       0.00000361      16.90851908       0.00147916      -0.00001003       0.05989128
O        1.97049401       3.94093312      11.88882869      -0.06302314       0.00000617      -0.05541447
O        3.54695139       1.97047936      16.90887840       0.00867490      -0.00009076       0.05481566
O        1.97043419       1.97038596       9.93332579       0.01087808       0.00038747      -0.05022856
O        3.54692153       3.94090180      14.96348443      -0.02881744       0.00007996       0.04317036
10
Lattice="3.940949890606662 0.0 0.0 0.0 3.940949890606662 0.0 0.0 0.0 26.940967945119528" Properties=species:S:1:pos:R:3:forces:R:3 tau=tau45 tau_p=4 tau_q=5 stage=B constraint=xy_fixed_z_free force_label=raw_dft energy=-15499.174218258207 free_energy=-15499.174218258207 stress="0.010036380891745206 0.0 0.0010724080945529596 0.0 0.010096979294348371 1.8363152303989035e-06 0.0010724080945529596 1.8363152303989035e-06 -0.00274620942706156" pbc="T T T"
Sr       0.00003612       0.00009431      10.31537346      -0.00025917      -0.00008099      -0.05150485
Sr       1.57628196       1.97046093      15.34163927      -0.10781021      -0.00013241       0.04568156
Ti       1.97047269       1.97057450      11.73893281       0.08347909      -0.00015118      -0.04589342
Ti       3.54658072       3.94088573      16.77403366      -0.00157634       0.00013138       0.05648225
O        0.00000902       1.97050521      11.89830624       0.09645828      -0.00014707      -0.04818556
O        1.57656794       0.00000361      16.91310096       0.00145319      -0.00000977       0.04436773
O        1.97049401       3.94093312      11.88460376      -0.06249478       0.00001028      -0.04004133
O        3.54695139       1.97047936      16.91306890       0.00855355      -0.00008793       0.04103172
O        1.97043419       1.97038596       9.93054487       0.01083797       0.00038798      -0.05598629
O        3.54692153       3.94090180      14.96571602      -0.02864183       0.00007996       0.05404845
10
Lattice="3.940949890606662 0.0 0.0 0.0 3.940949890606662 0.0 0.0 0.0 26.940967945119528" Properties=species:S:1:pos:R:3:forces:R:3 tau=tau45 tau_p=4 tau_q=5 stage=B constraint=xy_fixed_z_free force_label=raw_dft energy=-15499.176353263387 free_energy=-15499.176353263387 stress="0.009934465396458068 -0.0 0.0010604720455553666 -0.0 0.010007918005674025 1.8363152303989035e-06 0.0010604720455553666 1.8363152303989035e-06 -0.0027370278509095654" pbc="T T T"
Sr       0.00003612       0.00009431      10.31473148      -0.00035995      -0.00008485      -0.09383987
Sr       1.57628196       1.97046093      15.34459488      -0.10604515      -0.00013164       0.05985914
Ti       1.97047269       1.97057450      11.73287774       0.08227402      -0.00015504      -0.03336958
Ti       3.54658072       3.94088573      16.77905946      -0.00140048       0.00012984       0.05916365
O        0.00000902       1.97050521      11.89083461       0.09504160      -0.00014347      -0.02413135
O        1.57656794       0.00000361      16.92000974       0.00140074      -0.00000926       0.02415551
O        1.97049401       3.94093312      11.87827055      -0.06163963       0.00001440      -0.01974761
O        3.54695139       1.97047936      16.91940098       0.00835634      -0.00008536       0.02339267
O        1.97043419       1.97038596       9.92597461       0.01074464       0.00038695      -0.06240196
O        3.54692153       3.94090180      14.96956592      -0.02837238       0.00007816       0.06691939
10
Lattice="3.940949890606662 0.0 0.0 0.0 3.940949890606662 0.0 0.0 0.0 26.940967945119528" Properties=species:S:1:pos:R:3:forces:R:3 tau=tau45 tau_p=4 tau_q=5 stage=B constraint=xy_fixed_z_free force_label=raw_dft energy=-15499.179064469618 free_energy=-15499.179064469618 stress="0.009808677803175743 0.0 0.0010411907356361783 0.0 0.009899575407080488 1.8363152303989035e-06 0.0010411907356361783 1.8363152303989035e-06 -0.0027012197039167868" pbc="T T T"
Sr       0.00003612       0.00009431      10.31248463      -0.00047514      -0.00008922      -0.15007966
Sr       1.57628196       1.97046093      15.34969946      -0.10335038      -0.00013138       0.07869915
Ti       1.97047269       1.97057450      11.72358430       0.08013177      -0.00016404      -0.01697108
Ti       3.54658072       3.94088573      16.78710421      -0.00091326       0.00012496       0.06196590
O        0.00000902       1.97050521      11.87962716       0.09285411      -0.00013653       0.00788197
O        1.57656794       0.00000361      16.93045381       0.00132386      -0.00000874      -0.00191239
O        1.97049401       3.94093312      11.86876068      -0.06027694       0.00002057       0.00646324
O        3.54695139       1.97047936      16.92900363       0.00805912      -0.00008125       0.00111149
O        1.97043419       1.97038596       9.91854727       0.01059269       0.00038721      -0.06958254
O        3.54692153       3.94090180      14.97605480      -0.02794558       0.00007868       0.08242391
10
Lattice="3.940949890606662 0.0 0.0 0.0 3.940949890606662 0.0 0.0 0.0 26.940967945119528" Properties=species:S:1:pos:R:3:forces:R:3 tau=tau45 tau_p=4 tau_q=5 stage=B constraint=xy_fixed_z_free force_label=raw_dft energy=-15499.182345754341 free_energy=-15499.182345754341 stress="0.009648000220515839 -0.0 0.0010127278495649951 -0.0 0.00976093360718537 1.8363152303989035e-06 0.0010127278495649951 1.8363152303989035e-06 -0.0026332760403920273" pbc="T T T"
Sr       0.00003612       0.00009431      10.30703148      -0.00057850      -0.00009513      -0.22169774
Sr       1.57628196       1.97046093      15.35844697      -0.09929832      -0.00013061       0.10218052
Ti       1.97047269       1.97057450      11.70929208       0.07707910      -0.00017484       0.00567160
Ti       3.54658072       3.94088573      16.79996750      -0.00035687       0.00012238       0.06386415
O        0.00000902       1.97050521      11.86281599       0.08944868      -0.00012881       0.04939449
O        1.57656794       0.00000361      16.94628123       0.00123207      -0.00000823      -0.03453017
O        1.97049401       3.94093312      11.85445015      -0.05813367       0.00002905       0.03913836
O        3.54695139       1.97047936      16.94362067       0.00758270      -0.00007636      -0.02620083
O        1.97043419       1.97038596       9.90652509       0.01033506       0.00038644      -0.07757378
O        3.54692153       3.94090180      14.98688880      -0.02731026       0.00007636       0.09975366
10
Lattice="3.940949890606662 0.0 0.0 0.0 3.940949890606662 0.0 0.0 0.0 26.940967945119528" Properties=species:S:1:pos:R:3:forces:R:3 tau=tau45 tau_p=4 tau_q=5 stage=B constraint=xy_fixed_z_free force_label=raw_dft energy=-15499.186293581914 free_energy=-15499.186293581914 stress="0.009474468431243143 -0.0 0.0009686562840354216 -0.0 0.00961219207352306 1.8363152303989035e-06 0.0009686562840354216 1.8363152303989035e-06 -0.002491879767651312" pbc="T T T"
Sr       0.00003612       0.00009431      10.29512953      -0.00067671      -0.00010156      -0.30620065
Sr       1.57628196       1.97046093      15.37350822      -0.09317189      -0.00012984       0.12992581
Ti       1.97047269       1.97057450      11.68727485       0.07327541      -0.00019000       0.03369225
Ti       3.54658072       3.94088573      16.82063995      -0.00071374       0.00011673       0.06343914
O        0.00000902       1.97050521      11.83759924       0.08425274      -0.00011956       0.09941942
O        1.57656794       0.00000361      16.97036052       0.00116342      -0.00000771      -0.07295557
O        1.97049401       3.94093312      11.83284809      -0.05467477       0.00003702       0.07588688
O        3.54695139       1.97047936      16.96599403       0.00693452      -0.00007148      -0.05752072
O        1.97043419       1.97038596       9.88694205       0.00988409       0.00038824      -0.08289391
O        3.54692153       3.94090180      15.00502349      -0.02627307       0.00007816       0.11720682
10
Lattice="3.940949890606662 0.0 0.0 0.0 3.940949890606662 0.0 0.0 0.0 26.940967945119528" Properties=species:S:1:pos:R:3:forces:R:3 tau=tau45 tau_p=4 tau_q=5 stage=B constraint=xy_fixed_z_free force_label=raw_dft energy=-15499.191539256437 free_energy=-15499.191539256437 stress="0.009364289517419208 0.0 0.0009089760390474571 0.0 0.009526803415309511 1.8363152303989035e-06 0.0009089760390474571 1.8363152303989035e-06 -0.002235713793010665" pbc="T T T"
Sr       0.00003612       0.00009431      10.27247715      -0.00079884      -0.00010593      -0.38055361
Sr       1.57628196       1.97046093      15.39737702      -0.08498576      -0.00012676       0.15438883
Ti       1.97047269       1.97057450      11.65635752       0.06879346      -0.00020620       0.06287427
Ti       3.54658072       3.94088573      16.85106235      -0.00206588       0.00010799       0.06171676
O        0.00000902       1.97050521      11.80331838       0.07715186      -0.00010979       0.14482407
O        1.57656794       0.00000361      17.00371934       0.00106161      -0.00000643      -0.10832340
O        1.97049401       3.94093312      11.80313288      -0.04972848       0.00004525       0.10383940
O        3.54695139       1.97047936      16.99725550       0.00626321      -0.00006453      -0.08442012
O        1.97043419       1.97038596       9.85776662       0.00908345       0.00038798      -0.08151965
O        3.54692153       3.94090180      15.03285321      -0.02477489       0.00007816       0.12717345
10
Lattice="3.940949890606662 0.0 0.0 0.0 3.940949890606662 0.0 0.0 0.0 26.940967945119528" Properties=species:S:1:pos:R:3:forces:R:3 tau=tau45 tau_p=4 tau_q=5 stage=B constraint=xy_fixed_z_free force_label=raw_dft energy=-15499.198409994808 free_energy=-15499.198409994808 stress="0.009390916088259992 0.0 0.0008447050059834956 0.0 0.009573629453684684 1.8363152303989035e-06 0.0008447050059834956 1.8363152303989035e-06 -0.0018831412687740753" pbc="T T T"
Sr       0.00003612       0.00009431      10.24024308      -0.00069703      -0.00010824      -0.41355243
Sr       1.57628196       1.97046093      15.42748839      -0.07631600      -0.00012624       0.16895182
Ti       1.97047269       1.97057450      11.62134244       0.06235902      -0.00020672       0.08544856
Ti       3.54658072       3.94088573      16.88714926      -0.00193990       0.00010490       0.04538640
O        0.00000902       1.97050521      11.76560942       0.06958665      -0.00010490       0.16953520
O        1.57656794       0.00000361      17.04110010       0.00091968      -0.00000951      -0.12754214
O        1.97049401       3.94093312      11.76988494      -0.04445617       0.00004911       0.11145192
O        3.54695139       1.97047936      17.03264396       0.00550190      -0.00006325      -0.09571883
O        1.97043419       1.97038596       9.82293803       0.00811877       0.00038798      -0.07122676
O        3.54692153       3.94090180      15.06692033      -0.02307719       0.00007688       0.12726626
10
Lattice="3.940949890606662 0.0 0.0 0.0 3.940949890606662 0.0 0.0 0.0 26.940967945119528" Properties=species:S:1:pos:R:3:forces:R:3 tau=tau45 tau_p=4 tau_q=5 stage=B constraint=xy_fixed_z_free force_label=raw_dft energy=-15499.209936192783 free_energy=-15499.209936192783 stress="0.009634227856287847 -0.0 0.0007492166140027525 -0.0 0.009836222531631725 1.8363152303989035e-06 0.0007492166140027525 1.8363152303989035e-06 -0.0013157198625808142" pbc="T T T"
Sr       0.00003612       0.00009431      10.18367965      -0.00050214      -0.00010593      -0.39198139
Sr       1.57628196       1.97046093      15.47644867      -0.06458097      -0.00012367       0.17386211
Ti       1.97047269       1.97057450      11.56962639       0.05329151      -0.00021109       0.09067741
Ti       3.54658072       3.94088573      16.94236701      -0.00126164       0.00009410       0.02351120
O        0.00000902       1.97050521      11.71118797       0.05929710      -0.00010619       0.17065209
O        1.57656794       0.00000361      17.09599190       0.00065203      -0.00000591      -0.13208194
O        1.97049401       3.94093312      11.72087698      -0.03739412       0.00004602       0.09304154
O        3.54695139       1.97047936      17.08521169       0.00436085      -0.00005476      -0.09144334
O        1.97043419       1.97038596       9.76909487       0.00678206       0.00038824      -0.04412219
O        3.54692153       3.94090180      15.12083484      -0.02064467       0.00007919       0.10788426
10
Lattice="3.940949890606662 0.0 0.0 0.0 3.940949890606662 0.0 0.0 0.0 26.940967945119528" Properties=species:S:1:pos:R:3:forces:R:3 tau=tau45 tau_p=4 tau_q=5 stage=B constraint=xy_fixed_z_free force_label=raw_dft energy=-15499.224223121711 free_energy=-15499.224223121711 stress="0.01013003296849555 -0.0 0.0006335287544876216 -0.0 0.010358654214680213 1.8363152303989035e-06 0.0006335287544876216 1.8363152303989035e-06 -0.0006124111293380343" pbc="T T T"
Sr       0.00003612       0.00009431      10.09883451      -0.00017586      -0.00009127      -0.29043233
Sr       1.57628196       1.97046093      15.54701895      -0.05084845      -0.00012496       0.16669696
Ti       1.97047269       1.97057450      11.50050702       0.04225248      -0.00019823       0.08417303
Ti       3.54658072       3.94088573      17.01789622      -0.00105801       0.00008973      -0.00557827
O        0.00000902       1.97050521      11.63994372       0.04738543      -0.00011364       0.13318777
O        1.57656794       0.00000361      17.16873763       0.00051345      -0.00000257      -0.11365099
O        1.97049401       3.94093312      11.65508984      -0.02928178       0.00003908       0.03819477
O        3.54695139       1.97047936      17.15576582       0.00345402      -0.00007251      -0.06368828
O        1.97043419       1.97038596       9.69518256       0.00547748       0.00039132      -0.01064128
O        3.54692153       3.94090180      15.19634370      -0.01771901       0.00008305       0.06173887
10
Lattice="3.940949890606662 0.0 0.0 0.0 3.940949890606662 0.0 0.0 0.0 26.940967945119528" Properties=species:S:1:pos:R:3:forces:R:3 tau=tau45 tau_p=4 tau_q=5 stage=B constraint=xy_fixed_z_free force_label=raw_dft energy=-15499.235682379687 free_energy=-15499.235682379687 stress="0.010883840370574301 -0.0 0.0004976414274381028 -0.0 0.01114918792136694 1.8363152303989035e-06 0.0004976414274381028 1.8363152303989035e-06 0.0002506570289494503" pbc="T T T"
Sr       0.00003612       0.00009431       9.97668207      -0.00008433      -0.00007970      -0.08689172
Sr       1.57628196       1.97046093      15.64754167      -0.03675366      -0.00011673       0.12659341
Ti       1.97047269       1.97057450      11.40925855       0.03141760      -0.00018332       0.04504830
Ti       3.54658072       3.94088573      17.11941774      -0.00061861       0.00009873      -0.03984721
O        0.00000902       1.97050521      11.54686372       0.03442784      -0.00013524       0.05242351
O        1.57656794       0.00000361      17.26427237       0.00031367      -0.00000591      -0.06244644
O        1.97049401       3.94093312      11.56620685      -0.02108999       0.00001234      -0.05005861
O        3.54695139       1.97047936      17.25002344       0.00242249      -0.00006582      -0.00560783
O        1.97043419       1.97038596       9.59541871       0.00394536       0.00038849       0.02779080
O        3.54692153       3.94090180      15.29963485      -0.01398037       0.00008716      -0.00700446
10
Lattice="3.940949890606662 0.0 0.0 0.0 3.940949890606662 0.0 0.0 0.0 26.940967945119528" Properties=species:S:1:pos:R:3:forces:R:3 tau=tau45 tau_p=4 tau_q=5 stage=B constraint=xy_fixed_z_free force_label=raw_dft energy=-15499.237169209699 free_energy=-15499.237169209699 stress="0.011051863214155801 0.0 0.00046091512283012476 0.0 0.011309865504026845 1.8363152303989035e-06 0.00046091512283012476 1.8363152303989035e-06 0.0004278614486829445" pbc="T T T"
Sr       0.00003612       0.00009431       9.93877166      -0.00004165      -0.00007430      -0.00712967
Sr       1.57628196       1.97046093      15.68000334      -0.03302016      -0.00011904       0.08643329
Ti       1.97047269       1.97057450      11.38383607       0.02888943      -0.00016352       0.02046521
Ti       3.54658072       3.94088573      17.14794488      -0.00097445       0.00010027      -0.04387305
O        0.00000902       1.97050521      11.52119586       0.03141065      -0.00014475       0.02398222
O        1.57656794       0.00000361      17.29047328       0.00019335      -0.00000694      -0.03568614
O        1.97049401       3.94093312      11.53917676      -0.01915060       0.00000437      -0.06956325
O        3.54695139       1.97047936      17.27729616       0.00226103      -0.00006942       0.01786968
O        1.97043419       1.97038596       9.56707052       0.00359337       0.00038772       0.02986696
O        3.54692153       3.94090180      15.32955143      -0.01316122       0.00008587      -0.02236500
10
Lattice="3.940949890606662 0.0 0.0 0.0 3.940949890606662 0.0 0.0 0.0 26.940967945119528" Properties=species:S:1:pos:R:3:forces:R:3 tau=tau45 tau_p=4 tau_q=5 stage=B constraint=xy_fixed_z_free force_label=raw_dft energy=-15499.237690307702 free_energy=-15499.237690307702 stress="0.011015136909547822 -0.0 0.00045540617713892803 -0.0 0.011243758155732484 1.8363152303989035e-06 0.00045540617713892803 1.8363152303989035e-06 0.00037001751892537906" pbc="T T T"
Sr       0.00003612       0.00009431       9.93122435       0.00000206      -0.00007096       0.02185206
Sr       1.57628196       1.97046093      15.68813706      -0.03237302      -0.00011878       0.05064713
Ti       1.97047269       1.97057450      11.38104410       0.02843306      -0.00016327       0.00496454
Ti       3.54658072       3.94088573      17.15096655      -0.00108706       0.00010464      -0.03010428
O        0.00000902       1.97050521      11.51881362       0.03096122      -0.00014732       0.01531143
O        1.57656794       0.00000361      17.29277299       0.00018846      -0.00000746      -0.02134273
O        1.97049401       3.94093312      11.53351006      -0.01874771       0.00000180      -0.06363249
O        3.54695139       1.97047936      17.28150691       0.00222735      -0.00007122       0.02475252
O        1.97043419       1.97038596       9.56357609       0.00354452       0.00038721       0.02103651
O        3.54692153       3.94090180      15.33376823      -0.01314888       0.00008536      -0.02348497
10
Lattice="3.940949890606662 0.0 0.0 0.0 3.940949890606662 0.0 0.0 0.0 26.940967945119528" Properties=species:S:1:pos:R:3:forces:R:3 tau=tau45 tau_p=4 tau_q=5 stage=B constraint=xy_fixed_z_free force_label=raw_dft energy=-15499.238147186838 free_energy=-15499.238147186838 stress="0.010858131957348716 0.0 0.0004618332804453242 0.0 0.011027991116160615 1.8363152303989035e-06 0.0004618332804453242 1.8363152303989035e-06 0.0001863859958854887" pbc="T T T"
Sr       0.00003612       0.00009431       9.93484355      -0.00000823      -0.00007071       0.03452812
Sr       1.57628196       1.97046093      15.68860953      -0.03281139      -0.00011981       0.00188308
Ti       1.97047269       1.97057450      11.38712980       0.02854130      -0.00016121      -0.01111128
Ti       3.54658072       3.94088573      17.14374660      -0.00080527       0.00010953      -0.00542991
O        0.00000902       1.97050521      11.52608376       0.03142197      -0.00014887       0.01229373
O        1.57656794       0.00000361      17.28516596       0.00015529      -0.00000874      -0.00688181
O        1.97049401       3.94093312      11.53459392      -0.01883539       0.00000154      -0.04069748
O        3.54695139       1.97047936      17.27738886       0.00221089      -0.00007251       0.02503792
O        1.97043419       1.97038596       9.56988234       0.00354478       0.00038644       0.00308610
O        3.54692153       3.94090180      15.32787564      -0.01341370       0.00008408      -0.01270845
10
Lattice="3.940949890606662 0.0 0.0 0.0 3.940949890606662 0.0 0.0 0.0 26.940967945119528" Properties=species:S:1:pos:R:3:forces:R:3 tau=tau45 tau_p=4 tau_q=5 stage=B constraint=xy_fixed_z_free force_label=raw_dft energy=-15499.23827997839 free_energy=-15499.23827997839 stress="0.010762643565367973 0.0 0.00046642406852132143 0.0 0.01089944905003269 1.8363152303989035e-06 0.00046642406852132143 1.8363152303989035e-06 9.640654959594242e-05" pbc="T T T"
Sr       0.00003612       0.00009431       9.93955246      -0.00000334      -0.00007071       0.02439900
Sr       1.57628196       1.97046093      15.68668409      -0.03318163      -0.00011956      -0.01292108
Ti       1.97047269       1.97057450      11.39059152       0.02868965      -0.00016095      -0.01276938
Ti       3.54658072       3.94088573      17.13927982      -0.00079678       0.00010824       0.00384329
O        0.00000902       1.97050521      11.53047550       0.03181612      -0.00014810       0.01472471
O        1.57656794       0.00000361      17.28070246       0.00017149      -0.00000874      -0.00468044
O        1.97049401       3.94093312      11.53566604      -0.01894980       0.00000334      -0.02455069
O        3.54695139       1.97047936      17.27482661       0.00222452      -0.00007199       0.01925139
O        1.97043419       1.97038596       9.57398100       0.00358129       0.00038592      -0.00491981
O        3.54692153       3.94090180      15.32356047      -0.01355177       0.00008279      -0.00237724
