10
Lattice="3.940949890606662 0.0 0.0 0.0 3.940949890606662 0.0 0.0 0.0 26.940967945119528" Properties=species:S:1:pos:R:3:forces:R:3 tau=tau61 tau_p=6 tau_q=1 stage=A constraint=rigid_scf force_label=raw_dft energy=-15497.55500921511 free_energy=-15497.55500921511 stress="0.019882703157144126 -0.000953047604577031 -0.012003992661117633 -0.000953047604577031 0.005306032858237632 0.0005747666671148567 -0.012003992661117633 0.0005747666671148567 -0.029117532450820213" pbc="T T T"
Sr       0.00003626       0.00009419      10.75260867      -0.00697695      -0.00717004       0.34251414
Sr       2.36447180       0.39408080      14.64522241       0.67750137      -0.57958167       4.48688663
Ti       1.97047258       1.97057465      12.38212169      -0.39645562       0.89306651      -2.60481058
Ti       0.39382070       2.36450570      16.28444791       0.13233365       0.02710894       0.14035652
O        0.00000906       1.97050529      12.45001441      -1.41348042      -0.81830243      -3.15261239
O        2.36475792       2.36457348      16.39256827      -0.01741151       0.08569127      -0.28049887
O        1.97049386       3.94093294      12.44909065      -0.10357021      -0.04369101      -1.28971188
O        0.39419154       0.39409932      16.37955485       0.03589851       0.00075359      -0.04875506
O        1.97043435       1.97038588      10.49176941      -0.18599926       0.06296760       0.31304775
O        0.39416159       2.36452185      14.44792112       1.27816069       0.37915724       2.09358348
