10
Lattice="3.940949890606662 0.0 0.0 0.0 3.940949890606662 0.0 0.0 0.0 26.940967945119528" Properties=species:S:1:pos:R:3:forces:R:3 tau=tau84 tau_p=8 tau_q=4 stage=B constraint=xy_fixed_z_free force_label=raw_dft energy=-15499.356907598181 free_energy=-15499.356907598181 stress="0.00989590277661969 -4.498972314477313e-05 -0.0019079315243844606 -4.498972314477313e-05 0.01019981294725071 0.001282666188433634 -0.0019079315243844606 0.001282666188433634 -0.0006427103306396162" pbc="T T T"
Sr       0.00003626       0.00009419      10.31695163      -0.00030828      -0.00058235       0.02797412
Sr       3.15266178       1.57636577      15.31435472       0.17463293      -0.05774801      -0.11896494
Ti       1.97047258       1.97057465      11.77504753      -0.13499577       0.09458857      -0.04219926
Ti       1.18201068       3.54679066      16.76010046       0.00755673      -0.01615527       0.00616293
O        0.00000906       1.97050529      11.95762031      -0.18177314      -0.07147950      -0.02144686
O        3.15294790       3.54685845      16.89243598      -0.00373993       0.00170001       0.09258491
O        1.97049386       3.94093294      11.86365466       0.10082710       0.10726668       0.04257078
O        1.18238152       1.57638429      16.88870745      -0.01291388       0.00251377       0.08794304
O        1.97043435       1.97038588       9.95670034      -0.01802086       0.01562537      -0.01598275
O        1.18235157       3.54680682      14.94974552       0.06873536      -0.07572927      -0.05864224
10
Lattice="3.940949890606662 0.0 0.0 0.0 3.940949890606662 0.0 0.0 0.0 26.940967945119528" Properties=species:S:1:pos:R:3:forces:R:3 tau=tau84 tau_p=8 tau_q=4 stage=B constraint=xy_fixed_z_free force_label=raw_dft energy=-15499.357616590787 free_energy=-15499.357616590787 stress="0.010018935897056417 -4.498972314477313e-05 -0.0019097678396148596 -4.498972314477313e-05 0.010352227111373818 0.0012863388188944318 -0.0019097678396148596 0.0012863388188944318 -0.0005031503731292995" pbc="T T T"
Sr       0.00003612       0.00009431      10.31752763      -0.00025917      -0.00061938       0.02443294
Sr       3.15266193       1.57636594      15.31190649       0.17504456      -0.05792901      -0.09431423
Ti       1.97047269       1.97057450      11.77417895      -0.13530045       0.09469193      -0.02269204
Ti       1.18201077       3.54679074      16.76022750       0.00752279      -0.01623446       0.00811080
O        0.00000902       1.97050521      11.95717890      -0.18217371      -0.07161705      -0.02464402
O        3.15294791       3.54685853      16.89434164      -0.00372836       0.00170593       0.07103958
O        1.97049401       3.94093312      11.86453108       0.10129992       0.10776368       0.03324411
O        1.18238144       1.57638437      16.89051776      -0.01290540       0.00252688       0.06664274
O        1.97043419       1.97038596       9.95637128      -0.01808283       0.01564851      -0.02200684
O        1.18235158       3.54680681      14.94853874       0.06858289      -0.07593727      -0.03981328
10
Lattice="3.940949890606662 0.0 0.0 0.0 3.940949890606662 0.0 0.0 0.0 26.940967945119528" Properties=species:S:1:pos:R:3:forces:R:3 tau=tau84 tau_p=8 tau_q=4 stage=B constraint=xy_fixed_z_free force_label=raw_dft energy=-15499.358183676028 free_energy=-15499.358183676028 stress="0.010132787441341148 -4.5907880759972583e-05 -0.0019116041548452585 -4.5907880759972583e-05 0.010502804960266527 0.0012909296069704291 -0.0019116041548452585 0.0012909296069704291 -0.0003351275295477999" pbc="T T T"
Sr       0.00003612       0.00009431      10.31822267      -0.00021340      -0.00066180       0.01789616
Sr       3.15266193       1.57636594      15.30921314       0.17554695      -0.05817018      -0.06768043
Ti       1.97047269       1.97057450      11.77351807      -0.13570540       0.09484414      -0.01583080
Ti       1.18201077       3.54679074      16.76045527       0.00746803      -0.01633859       0.01079581
O        0.00000902       1.97050521      11.95648426      -0.18258535      -0.07175075      -0.02467951
O        3.15294791       3.54685853      16.89637315      -0.00371653       0.00171493       0.04831720
O        1.97049401       3.94093312      11.86548105       0.10185219       0.10834860       0.02543695
O        1.18238144       1.57638437      16.89242457      -0.01290282       0.00254128       0.04432402
O        1.97043419       1.97038596       9.95575398      -0.01815276       0.01566290      -0.01585625
O        1.18235158       3.54680681      14.94739381       0.06840934      -0.07619079      -0.02272315
10
Lattice="3.940949890606662 0.0 0.0 0.0 3.940949890606662 0.0 0.0 0.0 26.940967945119528" Properties=species:S:1:pos:R:3:forces:R:3 tau=tau84 tau_p=8 tau_q=4 stage=B constraint=xy_fixed_z_free force_label=raw_dft energy=-15499.358669263172 free_energy=-15499.358669263172 stress="0.010290710551155454 -4.498972314477313e-05 -0.0019143586276908567 -4.498972314477313e-05 0.010725917260759995 0.0012973567102768254 -0.0019143586276908567 0.0012973567102768254 -9.640654959594242e-05" pbc="T T T"
Sr       0.00003612       0.00009431      10.31927921      -0.00014167      -0.00072479       0.00747137
Sr       3.15266193       1.57636594      15.30517311       0.17626969      -0.05856459      -0.02785559
Ti       1.97047269       1.97057450      11.77253902      -0.13630883       0.09506885      -0.00760327
Ti       1.18201077       3.54679074      16.76100667       0.00739424      -0.01650108       0.01153577
O        0.00000902       1.97050521      11.95514946      -0.18310960      -0.07190938      -0.02278049
O        3.15294791       3.54685853      16.89930864      -0.00369982       0.00173010       0.01688186
O        1.97049401       3.94093312      11.86697363       0.10268857       0.10922869       0.01441592
O        1.18238144       1.57638437      16.89513780      -0.01290205       0.00255465       0.01359137
O        1.97043419       1.97038596       9.95483140      -0.01827206       0.01568681      -0.00654397
O        1.18235158       3.54680681      14.94592102       0.06808178      -0.07656925       0.00088703
10
Lattice="3.940949890606662 0.0 0.0 0.0 3.940949890606662 0.0 0.0 0.0 26.940967945119528" Properties=species:S:1:pos:R:3:forces:R:3 tau=tau84 tau_p=8 tau_q=4 stage=B constraint=xy_fixed_z_free force_label=raw_dft energy=-15499.358780421677 free_energy=-15499.358780421677 stress="0.010388035258366598 -4.498972314477313e-05 -0.0019152767853060563 -4.498972314477313e-05 0.010878331424883104 0.0013019474983528225 -0.0019152767853060563 0.0013019474983528225 5.049866883596985e-05" pbc="T T T"
Sr       0.00003612       0.00009431      10.32001654      -0.00008845      -0.00077056      -0.00036664
Sr       3.15266193       1.57636594      15.30235963       0.17670678      -0.05887518       0.00033064
Ti       1.97047269       1.97057450      11.77181101      -0.13672330       0.09519175      -0.00222478
Ti       1.18201077       3.54679074      16.76162737       0.00733793      -0.01662450       0.01008438
O        0.00000902       1.97050521      11.95379879      -0.18331014      -0.07194744      -0.01938432
O        3.15294791       3.54685853      16.90125386      -0.00368876       0.00174629      -0.00248060
O        1.97049401       3.94093312      11.86814750       0.10328481       0.10984498       0.00656531
O        1.18238144       1.57638437      16.89687301      -0.01290025       0.00256082      -0.00507433
O        1.97043419       1.97038596       9.95419581      -0.01836668       0.01569504      -0.00102896
O        1.18235158       3.54680681      14.94523645       0.06774805      -0.07682122       0.01357902
