10
Lattice="3.940949890606662 0.0 0.0 0.0 3.940949890606662 0.0 0.0 0.0 26.940967945119528" Properties=species:S:1:pos:R:3:forces:R:3 tau=tau68 tau_p=6 tau_q=8 stage=A constraint=rigid_scf force_label=raw_dft energy=-15497.433053915185 free_energy=-15497.433053915185 stress="0.01936027147409564 0.0013092927592744182 -0.009321136109504835 0.0013092927592744182 0.007205700964085297 -0.0032603776915732527 -0.009321136109504835 -0.0032603776915732527 -0.023368947622056446" pbc="T T T"
Sr       0.00003626       0.00009419      10.75260867      -0.00891633       0.01058780       0.47716255
Sr       2.36447180       3.15274573      14.64522241       0.75394104       1.19244037       4.46664357
Ti       1.97047258       1.97057465      12.38212169      -0.55571438      -1.47004032      -3.53948140
Ti       0.39382070       1.18222073      16.28444791       0.09020741      -0.02253186      -0.22640954
O        0.00000906       1.97050529      12.45001441      -1.06625654       1.12431410      -2.06383582
O        2.36475792       1.18228851      16.39256827      -0.01554283      -0.13734987      -0.23534464
O        1.97049386       3.94093294      12.44909065       0.13892442      -0.15990565      -0.88460733
O        0.39419154       3.15276425      16.37955485       0.00158457      -0.01553615      -0.04361054
O        1.97043435       1.97038588      10.49176941      -0.14665932      -0.10044503       0.38212558
O        0.39416159       1.18223689      14.44792112       0.80843197      -0.42153313       1.66735757
