10
Lattice="3.940949890606662 0.0 0.0 0.0 3.940949890606662 0.0 0.0 0.0 26.940967945119528" Properties=species:S:1:pos:R:3:forces:R:3 tau=tau57 tau_p=5 tau_q=7 stage=A constraint=rigid_scf force_label=raw_dft energy=-15496.817398123967 free_energy=-15496.817398123967 stress="0.02056305795000692 9.181576151994517e-07 -9.181576151994517e-07 9.181576151994517e-07 0.010062089304970791 -0.005059966617364178 -9.181576151994517e-07 -0.005059966617364178 -0.02400064006131367" pbc="T T T"
Sr       0.00003626       0.00009419      10.75260867      -0.00008356       0.01219834       0.63215071
Sr       1.97037682       2.75865074      14.64522241      -0.00055742       1.64042655       5.50090941
Ti       1.97047258       1.97057465      12.38212169       0.00017406      -1.67966210      -5.62885984
Ti       3.94067560       0.78812574      16.28444791       0.00045097      -0.05273435      -0.66621165
O        0.00000906       1.97050529      12.45001441      -0.00000154       1.02613421      -1.10532445
O        1.97066293       0.78819352      16.39256827      -0.00053582      -0.13849144      -0.18506903
O        1.97049386       3.94093294      12.44909065      -0.00000026      -0.26450044      -0.50032099
O        0.00009655       2.75866926      16.37955485       0.00055844      -0.01882716      -0.06424210
O        1.97043435       1.97038588      10.49176941       0.00015581      -0.07455274       0.44647746
O        0.00006660       0.78814190      14.44792112      -0.00016069      -0.44999088       1.57049023
