10
Lattice="3.940949890606662 0.0 0.0 0.0 3.940949890606662 0.0 0.0 0.0 26.940967945119528" Properties=species:S:1:pos:R:3:forces:R:3 tau=tau55 tau_p=5 tau_q=5 stage=A constraint=rigid_scf force_label=raw_dft energy=-15496.198950036594 free_energy=-15496.198950036594 stress="0.01788571034408532 -0.0 -0.0 -0.0 0.01750008414570155 2.7544728455983548e-06 -0.0 2.7544728455983548e-06 -0.028009316209274476" pbc="T T T"
Sr       0.00003626       0.00009419      10.75260867      -0.00010053      -0.00004577       0.73201210
Sr       1.97037682       1.97046076      14.64522241      -0.00069111      -0.00040726       7.22625307
Ti       1.97047258       1.97057465      12.38212169       0.00028102       0.00049468      -8.20973731
Ti       3.94067560       3.94088565      16.28444791       0.00090991       0.00015581      -1.30953200
O        0.00000906       1.97050529      12.45001441      -0.00000283      -0.00027562      -0.13477029
O        1.97066293       0.00000355      16.39256827      -0.00094257       0.00002648      -0.09430241
O        1.97049386       3.94093294      12.44909065      -0.00003162      -0.00020517      -0.12611081
O        0.00009655       1.97047928      16.37955485       0.00058930      -0.00017355      -0.05566207
O        1.97043435       1.97038588      10.49176941       0.00016712       0.00028719       0.43383561
O        0.00006660       3.94090181      14.44792112      -0.00017869       0.00014321       1.53801386
