10
Lattice="3.940949890606662 0.0 0.0 0.0 3.940949890606662 0.0 0.0 0.0 26.940967945119528" Properties=species:S:1:pos:R:3:forces:R:3 energy=-15500.272137187912 free_energy=-15500.272137187912 stress="0.009443251072326362 0.0003654267308493818 0.0067558037326375655 0.0003654267308493818 0.009151276950692936 0.006750294786946369 0.0067558037326375655 0.006750294786946369 -0.0019051770515388622" pbc="T T T"
Sr       0.00003626       0.00009419      10.75260867      -0.00226488      -0.00216538       0.09812847
Sr       0.39399686       0.39408080      14.64522241      -0.35262706      -0.35289651       0.67450783
Ti       1.97047258       1.97057465      12.38212169       0.33995769       0.34026673      -0.15316679
Ti       2.36429564       2.36450570      16.28444791      -0.04983544      -0.04788525      -0.01428428
O        0.00000906       1.97050529      12.45001441       0.90670750      -0.27278813      -0.29826622
O        0.39428297       2.36457348      16.39256827      -0.00895310      -0.02020707      -0.03386066
O        1.97049386       3.94093294      12.44909065      -0.27292929       0.90483059      -0.29561259
O        2.36466649       0.39409932      16.37955485      -0.02009960      -0.01080403       0.00400964
O        1.97043435       1.97038588      10.49176941       0.16408703       0.16381578       0.08190249
O        2.36463654       2.36452185      14.44792112      -0.70404286      -0.70216647      -0.06335790
10
Lattice="3.940949890606662 0.0 0.0 0.0 3.940949890606662 0.0 0.0 0.0 26.940967945119528" Properties=species:S:1:pos:R:3:forces:R:3 energy=-15500.284642723595 free_energy=-15500.284642723595 stress="0.009055788558712191 0.00035808146992778614 0.00659696246520806 0.00035808146992778614 0.008787686535073953 0.006592371677132063 0.00659696246520806 0.006592371677132063 -0.002019946753438794" pbc="T T T"
Sr       0.00003612       0.00009431      10.75462837      -0.00204428      -0.00195584       0.08396683
Sr       0.39399699       0.39408097      14.65910523      -0.33393719      -0.33415188       0.53707311
Ti       1.97047269       1.97057450      12.37896953       0.32489488       0.32516202      -0.16341212
Ti       2.36429575       2.36450576      16.28415392      -0.04977527      -0.04795544      -0.07237655
O        0.00000902       1.97050521      12.44387563       0.89344884      -0.27830572      -0.24196703
O        0.39428297       2.36457356      16.39187142      -0.00837820      -0.01966611      -0.00839671
O        1.97049401       3.94093312      12.44300642      -0.27839648       0.89169020      -0.23946355
O        2.36466641       0.39409940      16.37963733      -0.01954321      -0.01010084       0.02838575
O        1.97043419       1.97038596      10.49345508       0.16394562       0.16368954       0.02603730
O        2.36463656       2.36452183      14.44661704      -0.69021470      -0.68840619       0.05015271
10
Lattice="3.940949890606662 0.0 0.0 0.0 3.940949890606662 0.0 0.0 0.0 26.940967945119528" Properties=species:S:1:pos:R:3:forces:R:3 energy=-15500.295816262038 free_energy=-15500.295816262038 stress="0.008615072903416456 0.00035073620900619054 0.006423430675935364 0.00035073620900619054 0.0083726792930038 0.006418839887859367 0.006423430675935364 0.006418839887859367 -0.0023367111306826045" pbc="T T T"
Sr       0.00003612       0.00009431      10.75699226      -0.00190930      -0.00182420       0.06303291
Sr       0.39399699       0.39408097      14.67437601      -0.31422120      -0.31439141       0.40842205
Ti       1.97047269       1.97057450      12.37449063       0.31154006       0.31175886      -0.15343212
Ti       2.36429575       2.36450576      16.28234244      -0.04928728      -0.04763046      -0.04395661
O        0.00000902       1.97050521      12.43701377       0.87509039      -0.28173454      -0.18400383
O        0.39428297       2.36457356      16.39155768      -0.00764466      -0.01910047       0.00764183
O        1.97049401       3.94093312      12.43621417      -0.28177491       0.87348936      -0.18166978
O        2.36466641       0.39409940      16.38034267      -0.01895443      -0.00919195       0.04264406
O        1.97043419       1.97038596      10.49435367       0.16263205       0.16240733      -0.02982403
O        2.36463656       2.36452183      14.44763666      -0.67547045      -0.67378227       0.07114500
10
Lattice="3.940949890606662 0.0 0.0 0.0 3.940949890606662 0.0 0.0 0.0 26.940967945119528" Properties=species:S:1:pos:R:3:forces:R:3 energy=-15500.307631308857 free_energy=-15500.307631308857 stress="0.007932881795323263 0.0003424727904693955 0.006170019174140315 0.0003424727904693955 0.007733641592824981 0.006166346543679518 0.006170019174140315 0.006166346543679518 -0.0027801812588239398" pbc="T T T"
Sr       0.00003612       0.00009431      10.76049465      -0.00179154      -0.00170978       0.02333816
Sr       0.39399699       0.39408097      14.69728218      -0.28626200      -0.28635739       0.22732460
Ti       1.97047269       1.97057450      12.36672474       0.29387786       0.29400719      -0.12798849
Ti       2.36429575       2.36450576      16.28017663      -0.04858588      -0.04722319       0.01023530
O        0.00000902       1.97050521      12.42673001       0.84654549      -0.28469594      -0.10572453
O        0.39428297       2.36457356      16.39159367      -0.00652212      -0.01822449       0.03213288
O        1.97049401       3.94093312      12.42605071      -0.28468000       0.84521648      -0.10367639
O        2.36466641       0.39409940      16.38216653      -0.01805094      -0.00778839       0.06316969
O        1.97043419       1.97038596      10.49385642       0.15971101       0.15954209      -0.09420522
O        2.36463656       2.36452183      14.45024442      -0.65424214      -0.65276633       0.07539426
10
Lattice="3.940949890606662 0.0 0.0 0.0 3.940949890606662 0.0 0.0 0.0 26.940967945119528" Properties=species:S:1:pos:R:3:forces:R:3 energy=-15500.31530342248 free_energy=-15500.31530342248 stress="0.0069137268424518715 0.0003342093719326004 0.005807346916136533 0.0003342093719326004 0.006787021091554346 0.005805510600906134 0.005807346916136533 0.005805510600906134 -0.0032640503220340506" pbc="T T T"
Sr       0.00003612       0.00009431      10.76511566      -0.00178537      -0.00170567      -0.05048181
Sr       0.39399699       0.39408097      14.73143979      -0.24820890      -0.24823847      -0.02728069
Ti       1.97047269       1.97057450      12.35323235       0.27176946       0.27177872      -0.07988675
Ti       2.36429575       2.36450576      16.27882003      -0.04775978      -0.04684344       0.08310422
O        0.00000902       1.97050521      12.41124204       0.80327356      -0.28546059      -0.00395076
O        0.39428297       2.36457356      16.39294100      -0.00484036      -0.01688006       0.07311832
O        1.97049401       3.94093312      12.41077703      -0.28538371       0.80241121      -0.00244795
O        2.36466641       0.39409940      16.38671492      -0.01666589      -0.00566080       0.09513647
O        1.97043419       1.97038596      10.48951481       0.15381830       0.15373397      -0.15245073
O        2.36463656       2.36452183      14.45552234      -0.62421705      -0.62313488       0.06513967
10
Lattice="3.940949890606662 0.0 0.0 0.0 3.940949890606662 0.0 0.0 0.0 26.940967945119528" Properties=species:S:1:pos:R:3:forces:R:3 energy=-15500.316572833535 free_energy=-15500.316572833535 stress="0.006863228173615902 0.0003342093719326004 0.005754093774454963 0.0003342093719326004 0.0067558037326375655 0.005752257459224566 0.005754093774454963 0.005752257459224566 -0.003061137489074972" pbc="T T T"
Sr       0.00003612       0.00009431      10.76473051      -0.00180054      -0.00172110      -0.06689239
Sr       0.39399699       0.39408097      14.73633616      -0.24232287      -0.24233933      -0.05190980
Ti       1.97047269       1.97057450      12.34952311       0.27050988       0.27048699      -0.06663400
Ti       2.36429575       2.36450576      16.28050487      -0.04806343      -0.04724196       0.08113039
O        0.00000902       1.97050521      12.40866780       0.79556462      -0.28462343       0.00046948
O        0.39428297       2.36457356      16.39466963      -0.00453877      -0.01660136       0.07720174
O        1.97049401       3.94093312      12.40826752      -0.28453936       0.79482749       0.00179489
O        2.36466641       0.39409940      16.38939620      -0.01637201      -0.00525302       0.09596077
O        1.97043419       1.97038596      10.48578015       0.15171566       0.15165883      -0.12753263
O        2.36463656       2.36452183      14.45744402      -0.62015317      -0.61919312       0.05641129
10
Lattice="3.940949890606662 0.0 0.0 0.0 3.940949890606662 0.0 0.0 0.0 26.940967945119528" Properties=species:S:1:pos:R:3:forces:R:3 energy=-15500.318288239177 free_energy=-15500.318288239177 stress="0.0069274992066798635 0.0003342093719326004 0.005709104051310191 0.0003342093719326004 0.006843946863696713 0.005707267736079792 0.005709104051310191 0.005707267736079792 -0.0026690841873848064" pbc="T T T"
Sr       0.00003612       0.00009431      10.76310864      -0.00181983      -0.00174192      -0.07985486
Sr       0.39399699       0.39408097      14.74023464      -0.23696135      -0.23696341      -0.06089786
Ti       1.97047269       1.97057450      12.34495185       0.27093231       0.27087395      -0.04600809
Ti       2.36429575       2.36450576      16.28351310      -0.04856968      -0.04785209       0.07123601
O        0.00000902       1.97050521      12.40611061       0.78770630      -0.28330472      -0.00407468
O        0.39428297       2.36457356      16.39763303      -0.00424335      -0.01629411       0.07643118
O        1.97049401       3.94093312      12.40579374      -0.28321216       0.78713346      -0.00299379
O        2.36466641       0.39409940      16.39356606      -0.01604214      -0.00483779       0.09091729
O        1.97043419       1.97038596      10.48039414       0.14903862       0.14901008      -0.08788313
O        2.36463656       2.36452183      14.46001416      -0.61682873      -0.61602346       0.04312794
10
Lattice="3.940949890606662 0.0 0.0 0.0 3.940949890606662 0.0 0.0 0.0 26.940967945119528" Properties=species:S:1:pos:R:3:forces:R:3 energy=-15500.32051834814 free_energy=-15500.32051834814 stress="0.007120312305871748 0.0003342093719326004 0.005655850909628623 0.0003342093719326004 0.007073486267496576 0.005655850909628623 0.005655850909628623 0.005655850909628623 -0.0020089288620564003" pbc="T T T"
Sr       0.00003612       0.00009431      10.75944223      -0.00179746      -0.00172058      -0.08974847
Sr       0.39399699       0.39408097      14.74429691      -0.23071151      -0.23069377      -0.05734871
Ti       1.97047269       1.97057450      12.33844839       0.27279147       0.27268914      -0.01569941
Ti       2.36429575       2.36450576      16.28863019      -0.04940272      -0.04882422       0.05364221
O        0.00000902       1.97050521      12.40256619       0.77723266      -0.28123292      -0.01559554
O        0.39428297       2.36457356      16.40282358      -0.00387208      -0.01585651       0.06914236
O        1.97049401       3.94093312      12.40237464      -0.28112776       0.77689559      -0.01488669
O        2.36466641       0.39409940      16.40053978      -0.01557291      -0.00429966       0.07724262
O        1.97043419       1.97038596      10.47231512       0.14526450       0.14527530      -0.03134740
O        2.36463656       2.36452183      14.46388293      -0.61280418      -0.61223263       0.02459929
10
Lattice="3.940949890606662 0.0 0.0 0.0 3.940949890606662 0.0 0.0 0.0 26.940967945119528" Properties=species:S:1:pos:R:3:forces:R:3 energy=-15500.322835125362 free_energy=-15500.322835125362 stress="0.007516956395637911 0.0003314548990870021 0.005584234615643065 0.0003314548990870021 0.0075270561294051045 0.005585152773258264 0.005584234615643065 0.005585152773258264 -0.0009401933979642386" pbc="T T T"
Sr       0.00003612       0.00009431      10.75189845      -0.00167585      -0.00159948      -0.09076920
Sr       0.39399699       0.39408097      14.74924488      -0.22262925      -0.22258091      -0.03808035
Ti       1.97047269       1.97057450      12.32880820       0.27647278       0.27631260       0.02504100
Ti       2.36429575       2.36450576      16.29727875      -0.05076695      -0.05039002       0.02635638
O        0.00000902       1.97050521      12.39673255       0.76133656      -0.27796942      -0.03256791
O        0.39428297       2.36457356      16.41198714      -0.00336840      -0.01518545       0.05013163
O        1.97049401       3.94093312      12.39673923      -0.27784883       0.76136150      -0.03246506
O        2.36466641       0.39409940      16.41246649      -0.01485275      -0.00354735       0.04841002
O        1.97043419       1.97038596      10.46019658       0.13983150       0.13989861       0.04276516
O        2.36463656       2.36452183      14.46996768      -0.60649855      -0.60630006       0.00117885
10
Lattice="3.940949890606662 0.0 0.0 0.0 3.940949890606662 0.0 0.0 0.0 26.940967945119528" Properties=species:S:1:pos:R:3:forces:R:3 energy=-15500.323809428963 free_energy=-15500.323809428963 stress="0.007893401017869686 0.0003268641110110048 0.005536490419652694 0.0003268641110110048 0.007945736001936054 0.005538326734883092 0.005536490419652694 0.005538326734883092 -0.00012303312043672652" pbc="T T T"
Sr       0.00003612       0.00009431      10.74406157      -0.00149510      -0.00141925      -0.07412748
Sr       0.39399699       0.39408097      14.75220128      -0.21767216      -0.21760454      -0.01601232
Ti       1.97047269       1.97057450      12.32218468       0.27981727       0.27962084       0.04658350
Ti       2.36429575       2.36450576      16.30443411      -0.05168277      -0.05145240       0.00687384
O        0.00000902       1.97050521      12.39146604       0.74878906      -0.27556389      -0.03812149
O        0.39428297       2.36457356      16.42007011      -0.00305576      -0.01464140       0.02868837
O        1.97049401       3.94093312      12.39162395      -0.27544074       0.74908088      -0.03848916
O        2.36466641       0.39409940      16.42258077      -0.01427708      -0.00305961       0.01988260
O        1.97043419       1.97038596      10.45202930       0.13622424       0.13632940       0.07553284
O        2.36463656       2.36452183      14.47466815      -0.60120748      -0.60129027      -0.01081072
10
Lattice="3.940949890606662 0.0 0.0 0.0 3.940949890606662 0.0 0.0 0.0 26.940967945119528" Properties=species:S:1:pos:R:3:forces:R:3 energy=-15500.324247668299 free_energy=-15500.324247668299 stress="0.008100904638904763 0.00032227332293500755 0.005523636213039901 0.00032227332293500755 0.008167011987199123 0.005525472528270301 0.005523636213039901 0.005525472528270301 0.00019464941442228376" pbc="T T T"
Sr       0.00003612       0.00009431      10.73908390      -0.00131898      -0.00124390      -0.05133362
Sr       0.39399699       0.39408097      14.75281846      -0.21671186      -0.21663550      -0.00311155
Ti       1.97047269       1.97057450      12.32052875       0.28185641       0.28165510       0.04244223
Ti       2.36429575       2.36450576      16.30761764      -0.05190903      -0.05171183       0.00113154
O        0.00000902       1.97050521      12.38851327       0.74327173      -0.27480773      -0.03021175
O        0.39428297       2.36457356      16.42411684      -0.00295600      -0.01439998       0.01479207
O        1.97049401       3.94093312      12.38872460      -0.27468278       0.74365302      -0.03075631
O        2.36466641       0.39409940      16.42725588      -0.01402125      -0.00291460       0.00385768
O        1.97043419       1.97038596      10.45014367       0.13533773       0.13544983       0.06428195
O        2.36463656       2.36452183      14.47651695      -0.59886598      -0.59904467      -0.01109225
10
Lattice="3.940949890606662 0.0 0.0 0.0 3.940949890606662 0.0 0.0 0.0 26.940967945119528" Properties=species:S:1:pos:R:3:forces:R:3 energy=-15500.324614341696 free_energy=-15500.324614341696 stress="0.008286372477175051 0.0003158462196286114 0.005523636213039901 0.0003158462196286114 0.008352479825469413 0.005526390685885499 0.005523636213039901 0.005526390685885499 0.00035716331231258673" pbc="T T T"
Sr       0.00003612       0.00009431      10.73361825      -0.00106289      -0.00098705      -0.01453650
Sr       0.39399699       0.39408097      14.75258932      -0.21745311      -0.21737572       0.00668975
Ti       1.97047269       1.97057450      12.32111223       0.28408659       0.28387910       0.01978181
Ti       2.36429575       2.36450576      16.30987818      -0.05194605      -0.05173497      -0.00170130
O        0.00000902       1.97050521      12.38556120       0.73923921      -0.27468561      -0.00975168
O        0.39428297       2.36457356      16.42751373      -0.00291846      -0.01420946       0.00049828
O        1.97049401       3.94093312      12.38578613      -0.27456631       0.73963773      -0.01036386
O        2.36466641       0.39409940      16.43063296      -0.01382945      -0.00289146      -0.01029470
O        1.97043419       1.97038596      10.45110968       0.13561669       0.13572519       0.02373103
O        2.36463656       2.36452183      14.47751828      -0.59716622      -0.59735751      -0.00405283
