10
Lattice="3.940949890606662 0.0 0.0 0.0 3.940949890606662 0.0 0.0 0.0 26.940967945119528" Properties=species:S:1:pos:R:3:forces:R:3 tau=tau95 tau_p=9 tau_q=5 stage=A constraint=rigid_scf force_label=raw_dft energy=-15497.112995795069 free_energy=-15497.112995795069 stress="0.004623841750144439 0.0 0.0007051450484731788 0.0 0.022065163808473225 1.8363152303989035e-06 0.0007051450484731788 1.8363152303989035e-06 -0.035057094063545464" pbc="T T T"
Sr       0.00003626       0.00009419      10.75260867       0.00922255      -0.00008228       0.35765022
Sr       3.54675677       1.97046076      14.64522241       0.60815177      -0.00021392       5.12468194
Ti       1.97047258       1.97057465      12.38212169      -0.95147555       0.00091454      -3.06993214
Ti       1.57610567       3.94088565      16.28444791      -0.05795781       0.00005734       0.20687405
O        0.00000906       1.97050529      12.45001441       0.20360180      -0.00016738      -1.55753033
O        3.54704288       0.00000355      16.39256827      -0.00336660      -0.00000206      -0.09050386
O        1.97049386       3.94093294      12.44909065       0.92466511      -0.00061269      -3.65396002
O        1.57647651       1.97047928      16.37955485      -0.10152438      -0.00007405      -0.28466791
O        1.97043435       1.97038588      10.49176941      -0.05601585       0.00019900       0.34391642
O        1.57644656       3.94090181      14.44792112      -0.57530079      -0.00001825       2.62347190
