Sr Ti O
 1.0000000000000000
     3.9409498906066620    0.0000000000000000    0.0000000000000000
     0.0000000000000000    3.9409498906066620    0.0000000000000000
     0.0000000000000000    0.0000000000000000   26.9409679451195281
 Sr  Ti  O
   2   2   6
Cartesian
  0.0000361212000000  0.0000943054000000 10.5844003607000001
  0.7880919775000000  0.7881759597000000 15.0061796844999993
  1.9704726885999999  1.9705745045000000 12.0800187315999992
  2.7583907390000002  2.7586007549999998 16.4846425622000012
  0.0000090208000000  1.9705052130000000 12.1861393343000000
  0.7883779614000000  2.7586685502999999 16.6144967848999983
  1.9704940097000001  3.9409331233999998 12.1864551434999999
  2.7587614027999998  0.7881943893000000 16.6201369577000015
  1.9704341934000000  1.9703859550000000 10.2489842212000006
  2.7587315505999999  2.7586168262999999 14.6638661825999996
