10
Lattice="3.940949890606662 0.0 0.0 0.0 3.940949890606662 0.0 0.0 0.0 26.940967945119528" Properties=species:S:1:pos:R:3:forces:R:3 tau=tau22 tau_p=2 tau_q=2 stage=B constraint=xy_fixed_z_free force_label=raw_dft energy=-15499.052460376875 free_energy=-15499.052460376875 stress="0.010949029561253461 0.0016471747616678164 0.010558812574793694 0.0016471747616678164 0.01063318334162485 0.010551467313872099 0.010558812574793694 0.010551467313872099 -0.009492831583547131" pbc="T T T"
Sr       0.00003626       0.00009419      10.75260867       0.00025351       0.00029876       0.29909566
Sr       0.78809185       0.78817579      14.64522241      -0.86076574      -0.85999570       2.35339706
Ti       1.97047258       1.97057465      12.38212169       0.88814876       0.88808474      -1.36639349
Ti       2.75839063       2.75860069      16.28444791      -0.09429984      -0.09231957      -0.11092613
O        0.00000906       1.97050529      12.45001441       1.23123883      -0.52360130      -0.83376273
O        0.78837796       2.75866847      16.39256827       0.00267215       0.00723997      -0.08719948
O        1.97049386       3.94093294      12.44909065      -0.52376611       1.22763671      -0.82822766
O        2.75876148       0.78819431      16.37955485       0.00828332       0.00000848      -0.04950042
O        1.97043435       1.97038588      10.49176941       0.21398546       0.21374840       0.25236149
O        2.75873153       2.75861684      14.44792112      -0.86575034      -0.86110024       0.37115571
10
Lattice="3.940949890606662 0.0 0.0 0.0 3.940949890606662 0.0 0.0 0.0 26.940967945119528" Properties=species:S:1:pos:R:3:forces:R:3 tau=tau22 tau_p=2 tau_q=2 stage=B constraint=xy_fixed_z_free force_label=raw_dft energy=-15499.21330047223 free_energy=-15499.21330047223 stress="0.009523130784848713 0.0015498500544566746 0.009637900486748644 0.0015498500544566746 0.00924217455459768 0.009630555225827049 0.009637900486748644 0.009630555225827049 -0.010585439145634479" pbc="T T T"
Sr       0.00003612       0.00009431      10.75876462       0.00087289       0.00092277       0.30072882
Sr       0.78809198       0.78817596      14.69365966      -0.72782583      -0.72704010       1.75703174
Ti       1.97047269       1.97057450      12.35399923       0.76851662       0.76833870      -0.75754752
Ti       2.75839074       2.75860075      16.28216487      -0.08855265      -0.08699945      -0.04962306
O        0.00000902       1.97050521      12.43285419       1.16879213      -0.53015633      -0.71879508
O        0.78837796       2.75866855      16.39077362       0.00453877       0.00750454      -0.00531447
O        1.97049401       3.94093312      12.43204429      -0.53018178       1.16565924      -0.71413830
O        2.75876140       0.78819439      16.37853600       0.00843270       0.00240192       0.03457877
O        1.97043419       1.97038596      10.49696342       0.20511413       0.20493389      -0.18546678
O        2.75873155       2.75861683      14.45556007      -0.80970698      -0.80556519       0.33854589
10
Lattice="3.940949890606662 0.0 0.0 0.0 3.940949890606662 0.0 0.0 0.0 26.940967945119528" Properties=species:S:1:pos:R:3:forces:R:3 tau=tau22 tau_p=2 tau_q=2 stage=B constraint=xy_fixed_z_free force_label=raw_dft energy=-15499.337903847972 free_energy=-15499.337903847972 stress="0.007809848674886537 0.0014323258797111446 0.008760141806617968 0.0014323258797111446 0.007573882167780277 0.008753714703311573 0.008760141806617968 0.008753714703311573 -0.01128874787887726" pbc="T T T"
Sr       0.00003612       0.00009431      10.76762325       0.00005374       0.00011621       0.19598799
Sr       0.78809198       0.78817596      14.74694031      -0.61366679      -0.61292708       1.14638214
Ti       1.97047269       1.97057450      12.33014286       0.67101267       0.67071031      -0.42691548
Ti       2.75839074       2.75860075      16.28054830      -0.08133145      -0.08022767       0.05209749
O        0.00000902       1.97050521      12.41138162       1.09560285      -0.52455595      -0.53549163
O        0.78837796       2.75866855      16.39041112       0.00627786       0.00783672       0.09209872
O        1.97049401       3.94093312      12.41071117      -0.52450170       1.09304923      -0.53173602
O        2.75876140       0.78819439      16.37934367       0.00859288       0.00469946       0.13255502
O        1.97043419       1.97038596      10.49259836       0.19280754       0.19267744      -0.39738173
O        2.75873155       2.75861683      14.46561930      -0.75484735      -0.75137867       0.27240324
10
Lattice="3.940949890606662 0.0 0.0 0.0 3.940949890606662 0.0 0.0 0.0 26.940967945119528" Properties=species:S:1:pos:R:3:forces:R:3 tau=tau22 tau_p=2 tau_q=2 stage=B constraint=xy_fixed_z_free force_label=raw_dft energy=-15499.447003809875 free_energy=-15499.447003809875 stress="0.004925915605545059 0.0012808298732032352 0.00760142689623626 0.0012808298732032352 0.004764319865269955 0.007595917950545064 0.00760142689623626 0.007595917950545064 -0.011942476100899269" pbc="T T T"
Sr       0.00003612       0.00009431      10.78066176      -0.00225280      -0.00219341      -0.05936163
Sr       0.78809198       0.78817596      14.82686129      -0.47866073      -0.47813263       0.29953275
Ti       1.97047269       1.97057450      12.29650737       0.55740025       0.55702719      -0.20540543
Ti       2.75839074       2.75860075      16.28173551      -0.07090563      -0.07047162       0.20189022
O        0.00000902       1.97050521      12.37654599       0.98112628      -0.49721818      -0.24824670
O        0.78837796       2.75866855      16.39388490       0.00837614       0.00805270       0.25489120
O        1.97049401       3.94093312      12.37611462      -0.49716188       0.97950083      -0.24591959
O        2.75876140       0.78819439      16.38517082       0.00854918       0.00755981       0.29180890
O        1.97043419       1.97038596      10.47505420       0.17174866       0.17170547      -0.46334081
O        2.75873155       2.75861683      14.48278350      -0.67821973      -0.67583015       0.17415110
10
Lattice="3.940949890606662 0.0 0.0 0.0 3.940949890606662 0.0 0.0 0.0 26.940967945119528" Properties=species:S:1:pos:R:3:forces:R:3 tau=tau22 tau_p=2 tau_q=2 stage=B constraint=xy_fixed_z_free force_label=raw_dft energy=-15499.481575600965 free_energy=-15499.481575600965 stress="0.0031391808863669257 0.0011862596388376916 0.0069017907934542785 0.0011862596388376916 0.0030326746030037892 0.00689811816299348 0.0069017907934542785 0.00689811816299348 -0.011746908528861785" pbc="T T T"
Sr       0.00003612       0.00009431      10.78524372      -0.00407366      -0.00401066      -0.26874996
Sr       0.78809198       0.78817596      14.87880161      -0.40545191      -0.40514338      -0.18556011
Ti       1.97047269       1.97057450      12.27060494       0.49613009       0.49573029      -0.16352602
Ti       2.75839074       2.75860075      16.28840447      -0.06520035      -0.06517387       0.27905005
O        0.00000902       1.97050521      12.35076897       0.90109658      -0.46822154      -0.07561280
O        0.78837796       2.75866855      16.40335897       0.00945960       0.00793442       0.34906633
O        1.97049401       3.94093312      12.35053401      -0.46821228       0.90015736      -0.07435887
O        2.75876140       0.78819439      16.39697225       0.00823807       0.00913230       0.37821416
O        1.97043419       1.97038596      10.45359162       0.15546741       0.15547924      -0.37032987
O        2.75873155       2.75861683      14.49703941      -0.62745382      -0.62588364       0.13180709
10
Lattice="3.940949890606662 0.0 0.0 0.0 3.940949890606662 0.0 0.0 0.0 26.940967945119528" Properties=species:S:1:pos:R:3:forces:R:3 tau=tau22 tau_p=2 tau_q=2 stage=B constraint=xy_fixed_z_free force_label=raw_dft energy=-15499.50275979936 free_energy=-15499.50275979936 stress="0.0027140739105295793 0.0011229067633889294 0.0065290188016833015 0.0011229067633889294 0.0026433757741592214 0.006528100644068101 0.0065290188016833015 0.006528100644068101 -0.01090220352287829" pbc="T T T"
Sr       0.00003612       0.00009431      10.78060653      -0.00502188      -0.00496686      -0.36865660
Sr       0.78809198       0.78817596      14.90419757      -0.36938525      -0.36922018      -0.35626491
Ti       1.97047269       1.97057450      12.25043100       0.46671050       0.46634309      -0.13751931
Ti       2.75839074       2.75860075      16.29915127      -0.06327048      -0.06346408       0.29850585
O        0.00000902       1.97050521      12.33419744       0.85217800      -0.44671838      -0.01446837
O        0.78837796       2.75866855      16.41751175       0.00985041       0.00771460       0.35689252
O        1.97049401       3.94093312      12.33410509      -0.44674177       0.85169206      -0.01403102
O        2.75876140       0.78819439      16.41314735       0.00792003       0.00980696       0.37719909
O        1.97043419       1.97038596      10.43342287       0.14418129       0.14423657      -0.26905566
O        2.75873155       2.75861683      14.50854909      -0.59642086      -0.59542378       0.12739842
10
Lattice="3.940949890606662 0.0 0.0 0.0 3.940949890606662 0.0 0.0 0.0 26.940967945119528" Properties=species:S:1:pos:R:3:forces:R:3 tau=tau22 tau_p=2 tau_q=2 stage=B constraint=xy_fixed_z_free force_label=raw_dft energy=-15499.53251122985 free_energy=-15499.53251122985 stress="0.0029197412163342565 0.0010430270508665772 0.006151656021836326 0.0010430270508665772 0.0028931146454934725 0.006152574179451526 0.006151656021836326 0.006152574179451526 -0.009370716620725604" pbc="T T T"
Sr       0.00003612       0.00009431      10.76752842      -0.00580555      -0.00574822      -0.43880966
Sr       0.78809198       0.78817596      14.92699144      -0.33535696      -0.33534513      -0.43423490
Ti       1.97047269       1.97057450      12.22387964       0.43914133       0.43881558      -0.09132944
Ti       2.75839074       2.75860075      16.31755141      -0.06240427      -0.06277220       0.29864957
O        0.00000902       1.97050521      12.31453554       0.79684863      -0.42018870       0.01493580
O        0.78837796       2.75866855      16.44087694       0.01006047       0.00744771       0.32043479
O        1.97049401       3.94093312      12.31461432      -0.42023678       0.79685789       0.01450462
O        2.75876140       0.78819439      16.43921464       0.00756496       0.01031218       0.32818152
O        1.97043419       1.97038596      10.40548731       0.13088046       0.13096994      -0.14725402
O        2.75873155       2.75861683      14.52464030      -0.56069204      -0.56034931       0.13492224
10
Lattice="3.940949890606662 0.0 0.0 0.0 3.940949890606662 0.0 0.0 0.0 26.940967945119528" Properties=species:S:1:pos:R:3:forces:R:3 tau=tau22 tau_p=2 tau_q=2 stage=B constraint=xy_fixed_z_free force_label=raw_dft energy=-15499.573270073286 free_energy=-15499.573270073286 stress="0.003908596967904066 0.0009282573489666457 0.005704513263234194 0.0009282573489666457 0.003948077745357642 0.005707267736079792 0.005704513263234194 0.005707267736079792 -0.006896281847763082" pbc="T T T"
Sr       0.00003612       0.00009431      10.74074956      -0.00643933      -0.00638174      -0.47060984
Sr       0.78809198       0.78817596      14.95071505      -0.29895631      -0.29910363      -0.41547124
Ti       1.97047269       1.97057450      12.18576562       0.40866502       0.40841408      -0.01412307
Ti       2.75839074       2.75860075      16.34882059      -0.06194610      -0.06250249       0.27183040
O        0.00000902       1.97050521      12.28730939       0.72525781      -0.38432542       0.01300978
O        0.78837796       2.75866855      16.47897243       0.00991803       0.00709213       0.23018495
O        1.97049401       3.94093312      12.28761267      -0.38439766       0.72584505       0.01142547
O        2.75876140       0.78819439      16.48111799       0.00713250       0.01050527       0.22035717
O        1.97043419       1.97038596      10.36445383       0.11386645       0.11400477       0.00082558
O        2.75873155       2.75861683      14.54980285      -0.51310040      -0.51354777       0.15257132
10
Lattice="3.940949890606662 0.0 0.0 0.0 3.940949890606662 0.0 0.0 0.0 26.940967945119528" Properties=species:S:1:pos:R:3:forces:R:3 tau=tau22 tau_p=2 tau_q=2 stage=B constraint=xy_fixed_z_free force_label=raw_dft energy=-15499.616682026652 free_energy=-15499.616682026652 stress="0.005937725297494855 0.0007675797663067416 0.005182081580185706 0.0007675797663067416 0.00607820341262037 0.005187590525876902 0.005182081580185706 0.005187590525876902 -0.0033751473934731844" pbc="T T T"
Sr       0.00003612       0.00009431      10.69244498      -0.00642750      -0.00636708      -0.42695585
Sr       0.78809198       0.78817596      14.97509388      -0.26208077      -0.26236874      -0.26193576
Ti       1.97047269       1.97057450      12.13336271       0.37332701       0.37318971       0.07687496
Ti       2.75839074       2.75860075      16.39886899      -0.06088552      -0.06156892       0.21447963
O        0.00000902       1.97050521      12.24902342       0.63496144      -0.33809878      -0.02580642
O        0.78837796       2.75866855      16.53685124       0.00924080       0.00683759       0.08023642
O        1.97049401       3.94093312      12.24959515      -0.33818671       0.63610172      -0.02866934
O        2.75876140       0.78819439      16.54397300       0.00683965       0.01016357       0.04908005
O        1.97043419       1.97038596      10.30718597       0.09391031       0.09409363       0.15253789
O        2.75873155       2.75861683      14.58892061      -0.45069870      -0.45198220       0.17015818
10
Lattice="3.940949890606662 0.0 0.0 0.0 3.940949890606662 0.0 0.0 0.0 26.940967945119528" Properties=species:S:1:pos:R:3:forces:R:3 tau=tau22 tau_p=2 tau_q=2 stage=B constraint=xy_fixed_z_free force_label=raw_dft energy=-15499.638860529016 free_energy=-15499.638860529016 stress="0.008165175671968724 0.0006243471783356271 0.004790028278495539 0.0006243471783356271 0.008393796918153387 0.004796455381801935 0.004790028278495539 0.004796455381801935 -0.0004315340791437423" pbc="T T T"
Sr       0.00003612       0.00009431      10.63808179      -0.00561195      -0.00554664      -0.29756765
Sr       0.78809198       0.78817596      14.99138364      -0.23882592      -0.23918433      -0.05236926
Ti       1.97047269       1.97057450      12.08885337       0.34702514       0.34693900       0.13782347
Ti       2.75839074       2.75860075      16.44992269      -0.05989385      -0.06059627       0.12396754
O        0.00000902       1.97050521      12.21311444       0.56122451      -0.30012744      -0.07060095
O        0.78837796       2.75866855      16.59087966       0.00840082       0.00673372      -0.04191515
O        1.97049401       3.94093312      12.21384951      -0.30019069       0.56261085      -0.07410485
O        2.75876140       0.78819439      16.60163359       0.00670107       0.00950923      -0.08625023
O        1.97043419       1.97038596      10.25856408       0.07963041       0.07984149       0.20454206
O        2.75873155       2.75861683      14.62903720      -0.39845980      -0.40017961       0.15647477
10
Lattice="3.940949890606662 0.0 0.0 0.0 3.940949890606662 0.0 0.0 0.0 26.940967945119528" Properties=species:S:1:pos:R:3:forces:R:3 tau=tau22 tau_p=2 tau_q=2 stage=B constraint=xy_fixed_z_free force_label=raw_dft energy=-15499.644955198715 free_energy=-15499.644955198715 stress="0.009122814064621752 0.0005646669333476628 0.004685358310362802 0.0005646669333476628 0.009363371359804008 0.004692703571284398 0.004685358310362802 0.004692703571284398 0.00041959803014614944" pbc="T T T"
Sr       0.00003612       0.00009431      10.61139021      -0.00459996      -0.00453568      -0.18864235
Sr       0.78809198       0.78817596      14.99566070      -0.23450852      -0.23485022       0.04228308
Ti       1.97047269       1.97057450      12.07639954       0.34141499       0.34135354       0.12155893
Ti       2.75839074       2.75860075      16.47154454      -0.05978586      -0.06044226       0.06139357
O        0.00000902       1.97050521      12.19844727       0.53449789      -0.28660395      -0.06772671
O        0.78837796       2.75866855      16.60973352       0.00801541       0.00675480      -0.06082484
O        1.97049401       3.94093312      12.19915755      -0.28663455       0.53581096      -0.07100487
O        2.75876140       0.78819439      16.62076153       0.00673552       0.00909888      -0.10507173
O        1.97043419       1.97038596      10.24497158       0.07573287       0.07594499       0.15660898
O        2.75873155       2.75861683      14.64725352      -0.38086805      -0.38253104       0.11142621
10
Lattice="3.940949890606662 0.0 0.0 0.0 3.940949890606662 0.0 0.0 0.0 26.940967945119528" Properties=species:S:1:pos:R:3:forces:R:3 tau=tau22 tau_p=2 tau_q=2 stage=B constraint=xy_fixed_z_free force_label=raw_dft energy=-15499.648755540587 free_energy=-15499.648755540587 stress="0.0097150257264254 0.0005215135254332886 0.004650468320985222 0.0005215135254332886 0.009928956450766871 0.00465597726667642 0.004650468320985222 0.00465597726667642 0.0006427103306396162" pbc="T T T"
Sr       0.00003612       0.00009431      10.58959072      -0.00350724      -0.00343705      -0.06705411
Sr       0.78809198       0.78817596      14.99885588      -0.23447150      -0.23476460       0.09231700
Ti       1.97047269       1.97057450      12.07333540       0.34122447       0.34117536       0.06531450
Ti       2.75839074       2.75860075      16.48625510      -0.05981132      -0.06038159      -0.00180723
O        0.00000902       1.97050521      12.18792382       0.51667372      -0.27788406      -0.03687450
O        0.78837796       2.75866855      16.61902891       0.00767706       0.00694404      -0.03954485
O        1.97049401       3.94093312      12.18851143      -0.27786246       0.51776413      -0.03949163
O        2.75876140       0.78819439      16.62876891       0.00696923       0.00864508      -0.07803658
O        1.97043419       1.97038596      10.24167711       0.07427043       0.07448306       0.06330313
O        2.75873155       2.75861683      14.66137269      -0.37116240      -0.37254462       0.04187401
10
Lattice="3.940949890606662 0.0 0.0 0.0 3.940949890606662 0.0 0.0 0.0 26.940967945119528" Properties=species:S:1:pos:R:3:forces:R:3 tau=tau22 tau_p=2 tau_q=2 stage=B constraint=xy_fixed_z_free force_label=raw_dft energy=-15499.649869302528 free_energy=-15499.649869302528 stress="0.009700335204582208 0.0005132501068964935 0.004661486212367616 0.0005132501068964935 0.009874785151470103 0.004666995158058813 0.004661486212367616 0.004666995158058813 0.0003791990950773736" pbc="T T T"
Sr       0.00003612       0.00009431      10.58391760      -0.00299816      -0.00292746      -0.01564053
Sr       0.78809198       0.78817596      15.00127538      -0.23580564      -0.23603524       0.07305378
Ti       1.97047269       1.97057450      12.07694537       0.34322530       0.34314997       0.02101748
Ti       2.75839074       2.75860075      16.48779930      -0.05962928      -0.06013836      -0.02132550
O        0.00000902       1.97050521      12.18577657       0.51302353      -0.27633085      -0.00757627
O        0.78837796       2.75866855      16.61750369       0.00763078       0.00707053      -0.00792337
O        1.97049401       3.94093312      12.18624157      -0.27627763       0.51390104      -0.00961335
O        2.75876140       0.78819439      16.62553019       0.00713404       0.00847821      -0.03981148
O        1.97043419       1.97038596      10.24568370       0.07475688       0.07496668       0.00546539
O        2.75873155       2.75861683      14.66464661      -0.37105955      -0.37213479       0.00235410
10
Lattice="3.940949890606662 0.0 0.0 0.0 3.940949890606662 0.0 0.0 0.0 26.940967945119528" Properties=species:S:1:pos:R:3:forces:R:3 tau=tau22 tau_p=2 tau_q=2 stage=B constraint=xy_fixed_z_free force_label=raw_dft energy=-15499.650178832018 free_energy=-15499.650178832018 stress="0.009524048942463913 0.0005169227373572913 0.004667913315674012 0.0005169227373572913 0.009665445215204628 0.0046725041037500095 0.004667913315674012 0.0046725041037500095 0.00012303312043672652" pbc="T T T"
Sr       0.00003612       0.00009431      10.58420727      -0.00283798      -0.00276702      -0.00468224
Sr       0.78809198       0.78817596      15.00388056      -0.23594859      -0.23612909       0.03625307
Ti       1.97047269       1.97057450      12.07988813       0.34387476       0.34377989      -0.00093794
Ti       2.75839074       2.75860075      16.48559001      -0.05931175      -0.05977995      -0.01695591
O        0.00000902       1.97050521      12.18616831       0.51320762      -0.27657305       0.00759375
O        0.78837796       2.75866855      16.61471892       0.00770920       0.00709342       0.01158051
O        1.97049401       3.94093312      12.18654122      -0.27650466       0.51392393       0.00596984
O        2.75876140       0.78819439      16.62129997       0.00718649       0.00845276      -0.01482652
O        1.97043419       1.97038596      10.24889218       0.07524025       0.07544439      -0.01401714
O        2.75873155       2.75861683      14.66413339      -0.37261584      -0.37344554      -0.00997768
10
Lattice="3.940949890606662 0.0 0.0 0.0 3.940949890606662 0.0 0.0 0.0 26.940967945119528" Properties=species:S:1:pos:R:3:forces:R:3 tau=tau22 tau_p=2 tau_q=2 stage=B constraint=xy_fixed_z_free force_label=raw_dft energy=-15499.650257200805 free_energy=-15499.650257200805 stress="0.009439578441865562 0.0005187590525876902 0.0046587317395220176 0.0005187590525876902 0.009559857089456692 0.004662404369982815 0.0046587317395220176 0.004662404369982815 6.059840260316382e-05" pbc="T T T"
Sr       0.00003612       0.00009431      10.58440036      -0.00281202      -0.00274234      -0.00589811
Sr       0.78809198       0.78817596      15.00617968      -0.23492684      -0.23507133       0.01353043
Ti       1.97047269       1.97057450      12.08001873       0.34290597       0.34279310      -0.00464290
Ti       2.75839074       2.75860075      16.48464256      -0.05907392      -0.05950355      -0.00873969
O        0.00000902       1.97050521      12.18613933       0.51259852      -0.27625192       0.00962287
O        0.78837796       2.75866855      16.61449678       0.00778941       0.00706205       0.01539294
O        1.97049401       3.94093312      12.18645514      -0.27617427       0.51320865       0.00825247
O        2.75876140       0.78819439      16.62013696       0.00717672       0.00845842      -0.00735747
O        1.97043419       1.97038596      10.24898422       0.07511941       0.07531970      -0.01229167
O        2.75873155       2.75861683      14.66386618      -0.37260273      -0.37327276      -0.00786860
