Sr Ti O
 1.0000000000000000
     3.9409498906066620    0.0000000000000000    0.0000000000000000
     0.0000000000000000    3.9409498906066620    0.0000000000000000
     0.0000000000000000    0.0000000000000000   26.9409679451195281
 Sr  Ti  O
   2   2   6
Cartesian
  0.0000361212000000  0.0000943054000000 10.2939586118000008
  3.1526619275000001  2.3645559264000000 15.3286126341000006
  1.9704726885999999  1.9705745045000000 11.7471641841000007
  1.1820107721999999  0.3940308049000000 16.7862780234000013
  0.0000090208000000  1.9705052130000000 11.9255838433000001
  3.1529479114000001  0.3940986002000000 16.9254283518000008
  1.9704940097000001  3.9409331233999998 11.8470925198000003
  1.1823814360000000  2.3645743559999999 16.9219690094999997
  1.9704341934000000  1.9703859550000000  9.9290777519999995
  1.1823515838000000  0.3940468762000000 14.9701550332999993
