10
Lattice="3.940949890606662 0.0 0.0 0.0 3.940949890606662 0.0 0.0 0.0 26.940967945119528" Properties=species:S:1:pos:R:3:forces:R:3 tau=tau86 tau_p=8 tau_q=6 stage=B constraint=xy_fixed_z_free force_label=raw_dft energy=-15499.358968996565 free_energy=-15499.358968996565 stress="0.010376099209369005 3.764446222317752e-05 -0.0018096886595581193 3.764446222317752e-05 0.010859968272579115 -0.001217476997754473 -0.0018096886595581193 -0.001217476997754473 0.0002607567627166443" pbc="T T T"
Sr       0.00003626       0.00009419      10.29319244      -0.00041729       0.00037101       0.01743774
Sr       3.15266178       2.36455575      15.33018552       0.16218982       0.05502624      -0.03639628
Ti       1.97047258       1.97057465      11.74717831      -0.12736088      -0.08902625       0.00015427
Ti       1.18201068       0.39403075      16.78557240       0.00723071       0.01577783       0.01647897
O        0.00000906       1.97050529      11.92661094      -0.16876567       0.06557779      -0.02254395
O        3.15294790       0.39409854      16.92521523      -0.00341622      -0.00177612       0.00421070
O        1.97049386       3.94093294      11.84697026       0.09495547      -0.10113434       0.00177612
O        1.18238152       2.36457427      16.92202542      -0.01153191      -0.00253691      -0.00149355
O        1.97043435       1.97038588       9.92863644      -0.01691657      -0.01336897       0.01142547
O        1.18235157       0.39404691      14.96973205       0.06403281       0.07108972       0.00895052
10
Lattice="3.940949890606662 0.0 0.0 0.0 3.940949890606662 0.0 0.0 0.0 26.940967945119528" Properties=species:S:1:pos:R:3:forces:R:3 tau=tau86 tau_p=8 tau_q=6 stage=B constraint=xy_fixed_z_free force_label=raw_dft energy=-15499.359017840998 free_energy=-15499.359017840998 stress="0.010396298676903391 3.672630460797807e-05 -0.0018106068171733188 3.672630460797807e-05 0.010891185631495897 -0.0012183951553696724 -0.0018106068171733188 -0.0012183951553696724 0.00026626570840784103" pbc="T T T"
Sr       0.00003612       0.00009431      10.29355135      -0.00039749       0.00037718       0.01406213
Sr       3.15266193       2.36455593      15.32943664       0.16234562       0.05512445      -0.02842535
Ti       1.97047269       1.97057450      11.74718156      -0.12748635      -0.08908950      -0.00062118
Ti       1.18201077       0.39403080      16.78591165       0.00724254       0.01581203       0.01263132
O        0.00000902       1.97050521      11.92614695      -0.16879935       0.06558524      -0.01947996
O        3.15294791       0.39409860      16.92530214      -0.00342137      -0.00178100       0.00438579
O        1.97049401       3.94093312      11.84700693       0.09505548      -0.10122099       0.00299971
O        1.18238144       2.36457436      16.92199480      -0.01154425      -0.00253099      -0.00088137
O        1.97043419       1.97038596       9.92887155      -0.01696388      -0.01338491       0.00705845
O        1.18235158       0.39404688      14.96991638       0.06396905       0.07110874       0.00827021
10
Lattice="3.940949890606662 0.0 0.0 0.0 3.940949890606662 0.0 0.0 0.0 26.940967945119528" Properties=species:S:1:pos:R:3:forces:R:3 tau=tau86 tau_p=8 tau_q=6 stage=B constraint=xy_fixed_z_free force_label=raw_dft energy=-15499.359060834984 free_energy=-15499.359060834984 stress="0.010393544204057793 3.672630460797807e-05 -0.0018106068171733188 3.672630460797807e-05 0.01090220352287829 -0.0012202314706000713 -0.0018106068171733188 -0.0012202314706000713 0.00024973887133425085" pbc="T T T"
Sr       0.00003612       0.00009431      10.29395861      -0.00038489       0.00039338       0.01111925
Sr       3.15266193       2.36455593      15.32861263       0.16250015       0.05522781      -0.02148028
Ti       1.97047269       1.97057450      11.74716418      -0.12762339      -0.08914735       0.00050342
Ti       1.18201077       0.39403080      16.78627802       0.00724331       0.01585239       0.00857643
O        0.00000902       1.97050521      11.92558384      -0.16879292       0.06558010      -0.01477536
O        3.15294791       0.39409860      16.92542835      -0.00341622      -0.00178795       0.00343577
O        1.97049401       3.94093312      11.84709252       0.09516501      -0.10131381       0.00503011
O        1.18238144       2.36457436      16.92196901      -0.01155942      -0.00252534      -0.00122513
O        1.97043419       1.97038596       9.92907775      -0.01700476      -0.01340239       0.00463056
O        1.18235158       0.39404688      14.97015503       0.06387314       0.07112340       0.00418550
