10
Lattice="3.940949890606662 0.0 0.0 0.0 3.940949890606662 0.0 0.0 0.0 26.940967945119528" Properties=species:S:1:pos:R:3:forces:R:3 tau=tau44 tau_p=4 tau_q=4 stage=A constraint=rigid_scf force_label=raw_dft energy=-15496.62438900272 free_energy=-15496.62438900272 stress="0.016489192611366953 0.0005968024498796435 0.0053785673098383875 0.0005968024498796435 0.016119175092441575 0.005382239940299185 0.0053785673098383875 0.005382239940299185 -0.024408302042462224" pbc="T T T"
Sr       0.00003626       0.00009419      10.75260867      -0.00143030      -0.00129481       0.67868922
Sr       1.57628183       1.57636577      14.64522241      -1.10626470      -1.10490022       6.08885900
Ti       1.97047258       1.97057465      12.38212169       1.00814960       1.00819074      -6.65742632
Ti       3.54658061       3.54679066      16.28444791       0.01221583       0.01214743      -0.90185094
O        0.00000906       1.97050529      12.45001441       0.42697513      -0.49167566      -0.41846555
O        1.57656794       3.54685845      16.39256827       0.00125701       0.06097217      -0.12837852
O        1.97049386       3.94093294      12.44909065      -0.49103340       0.42559008      -0.41031207
O        3.54695145       1.57638429      16.37955485       0.06371682       0.00132463      -0.09034137
O        1.97043435       1.97038588      10.49176941       0.05938246       0.05937191       0.44021220
O        3.54692150       3.54680682      14.44792112       0.02703129       0.03027371       1.39901462
