Sr Ti O
 1.0000000000000000
     3.9409498906066620    0.0000000000000000    0.0000000000000000
     0.0000000000000000    3.9409498906066620    0.0000000000000000
     0.0000000000000000    0.0000000000000000   26.9409679451195281
 Sr  Ti  O
   2   2   6
Cartesian
  0.0000362567389936  0.0000941887023855 10.7526086686928579
  1.5762818265903886  1.5763657688230586 14.6452224147962404
  1.9704725807333965  1.9705746513355633 12.3821216936456491
  3.5465806114336096  3.5467906640627791 16.2844479107544302
  0.0000090641847484  1.9705052906174889 12.4500144078860746
  1.5765679395524468  3.5468584484008971 16.3925682650982161
  1.9704938618628061  3.9409329445221326 12.4490906492317173
  3.5469514548183159  1.5763842912875445 16.3795548544644447
  1.9704343535194577  1.9703858798358034 10.4917694123782645
  3.5469215035991470  3.5468068219573303 14.4479211230929518
