10
Lattice="3.940949890606662 0.0 0.0 0.0 3.940949890606662 0.0 0.0 0.0 26.940967945119528" Properties=species:S:1:pos:R:3:forces:R:3 tau=tau35 tau_p=3 tau_q=5 stage=A constraint=rigid_scf force_label=raw_dft energy=-15496.819327411084 free_energy=-15496.819327411084 stress="0.010434861296741768 -0.0 0.005065475563055376 -0.0 0.02021415805623113 2.7544728455983548e-06 0.005065475563055376 2.7544728455983548e-06 -0.023997885588468073" pbc="T T T"
Sr       0.00003626       0.00009419      10.75260867      -0.01247165      -0.00004731       0.63128270
Sr       1.18218684       1.97046076      14.64522241      -1.64629998      -0.00029233       5.50306579
Ti       1.97047258       1.97057465      12.38212169       1.68276799       0.00047823      -5.62924654
Ti       3.15248562       3.94088565      16.28444791       0.05309611       0.00005836      -0.66474175
O        0.00000906       1.97050529      12.45001441       0.26538001      -0.00023294      -0.50753165
O        1.18247295       0.00000355      16.39256827       0.01858702       0.00003342      -0.10224403
O        1.97049386       3.94093294      12.44909065      -1.02519345      -0.00029388      -1.09683389
O        3.15285647       1.97047928      16.37955485       0.14316468      -0.00008767      -0.14821304
O        1.97043435       1.97038588      10.49176941       0.07488698       0.00030365       0.44561820
O        3.15282651       3.94090181      14.44792112       0.44608203       0.00008073       1.56884421
