10
Lattice="3.940949890606662 0.0 0.0 0.0 3.940949890606662 0.0 0.0 0.0 26.940967945119528" Properties=species:S:1:pos:R:3:forces:R:3 tau=tau47 tau_p=4 tau_q=7 stage=B constraint=xy_fixed_z_free force_label=raw_dft energy=-15499.262706005002 free_energy=-15499.262706005002 stress="0.010343045535221824 -4.5907880759972583e-05 0.0012303312043672654 -4.5907880759972583e-05 0.010054744044049196 -0.0018886502144652723 0.0012303312043672654 -0.0018886502144652723 -0.0016673742292022042" pbc="T T T"
Sr       0.00003626       0.00009419      10.33334874      -0.00056333       0.00013010      -0.00107986
Sr       1.57628183       2.75865074      15.30921336      -0.08699945       0.17709476      -0.00765032
Ti       1.97047258       1.97057465      11.77371706       0.09214551      -0.14266820      -0.04132380
Ti       3.54658061       0.78812574      16.74856294      -0.00899603       0.00625909       0.05142103
O        0.00000906       1.97050529      11.90279657       0.10929734       0.10949531      -0.04125695
O        1.57656794       0.78819352      16.88539981       0.00191650      -0.01333683       0.03713959
O        1.97049386       3.94093294      11.93562192      -0.07034255      -0.17667284      -0.03060256
O        3.54695145       2.75866926      16.88789877       0.00542580      -0.00358823       0.03622582
O        1.97043435       1.97038588       9.96053843       0.01377366      -0.01910715      -0.03901366
O        3.54692150       0.78814190      14.93822140      -0.05565770       0.06239347       0.03614097
10
Lattice="3.940949890606662 0.0 0.0 0.0 3.940949890606662 0.0 0.0 0.0 26.940967945119528" Properties=species:S:1:pos:R:3:forces:R:3 tau=tau47 tau_p=4 tau_q=7 stage=B constraint=xy_fixed_z_free force_label=raw_dft energy=-15499.262956757904 free_energy=-15499.262956757904 stress="0.010362326845141013 -4.5907880759972583e-05 0.0012284948891368665 -4.5907880759972583e-05 0.010078616142044382 -0.0018877320568500726 0.0012284948891368665 -0.0018877320568500726 -0.0016288116093638272" pbc="T T T"
Sr       0.00003612       0.00009431      10.33332663      -0.00057978       0.00014835      -0.00674657
Sr       1.57628196       2.75865092      15.30905585      -0.08689583       0.17693535      -0.00035635
Ti       1.97047269       1.97057450      11.77286646       0.09205089      -0.14244914      -0.03952223
Ti       3.54658072       0.78812580      16.74962157      -0.00903409       0.00625421       0.04395249
O        0.00000902       1.97050521      11.90194752       0.10910656       0.10926674      -0.03996883
O        1.57656794       0.78819359      16.88616434       0.00191830      -0.01331677       0.03595868
O        1.97049401       3.94093312      11.93499233      -0.07023791      -0.17650855      -0.03065989
O        3.54695139       2.75866935      16.88864428       0.00543094      -0.00357512       0.03505879
O        1.97043419       1.97038596       9.95973548       0.01375360      -0.01908093      -0.03502485
O        3.54692153       0.78814187      14.93896551      -0.05551243       0.06232585       0.03730876
10
Lattice="3.940949890606662 0.0 0.0 0.0 3.940949890606662 0.0 0.0 0.0 26.940967945119528" Properties=species:S:1:pos:R:3:forces:R:3 tau=tau47 tau_p=4 tau_q=7 stage=B constraint=xy_fixed_z_free force_label=raw_dft energy=-15499.263234450078 free_energy=-15499.263234450078 stress="0.010354981584219417 -4.498972314477313e-05 0.0012266585739064675 -4.498972314477313e-05 0.010076779826813983 -0.0018858957416196737 0.0012266585739064675 -0.0018858957416196737 -0.001622384506057431" pbc="T T T"
Sr       0.00003612       0.00009431      10.33321396      -0.00059264       0.00018538      -0.01316893
Sr       1.57628196       2.75865092      15.30897631      -0.08677345       0.17670986       0.00626166
Ti       1.97047269       1.97057450      11.77186726       0.09193082      -0.14222134      -0.03801273
Ti       3.54658072       0.78812580      16.75078574      -0.00904231       0.00624984       0.03908103
O        0.00000902       1.97050521      11.90094220       0.10886102       0.10898495      -0.03748643
O        1.57656794       0.78819359      16.88706900       0.00190904      -0.01328592       0.03524700
O        1.97049401       3.94093312      11.93423129      -0.07011090      -0.17624989      -0.02982531
O        3.54695139       2.75866935      16.88952645       0.00541834      -0.00356689       0.03442476
O        1.97043419       1.97038596       9.95882680       0.01372506      -0.01903413      -0.03257279
O        3.54692153       0.78814187      14.93988095      -0.05532500       0.06222841       0.03605175
10
Lattice="3.940949890606662 0.0 0.0 0.0 3.940949890606662 0.0 0.0 0.0 26.940967945119528" Properties=species:S:1:pos:R:3:forces:R:3 tau=tau47 tau_p=4 tau_q=7 stage=B constraint=xy_fixed_z_free force_label=raw_dft energy=-15499.263644253517 free_energy=-15499.263644253517 stress="0.010362326845141013 -4.4071565529573677e-05 0.0012239041010608691 -4.4071565529573677e-05 0.010093306663887573 -0.001882223111158876 0.0012239041010608691 -0.001882223111158876 -0.0016003487232926444" pbc="T T T"
Sr       0.00003612       0.00009431      10.33284876      -0.00061089       0.00022754      -0.02152553
Sr       1.57628196       2.75865092      15.30903450      -0.08654667       0.17629952       0.01620978
Ti       1.97047269       1.97057450      11.77029550       0.09172411      -0.14183516      -0.03435559
Ti       3.54658072       0.78812580      16.75253199      -0.00905054       0.00622541       0.03334669
O        0.00000902       1.97050521      11.89939026       0.10845942       0.10853655      -0.03461219
O        1.57656794       0.78819359      16.88851093       0.00189490      -0.01323115       0.03369714
O        1.97049401       3.94093312      11.93302680      -0.06989775      -0.17580484      -0.02926815
O        3.54695139       2.75866935      16.89093435       0.00539777      -0.00354864       0.03301374
O        1.97043419       1.97038596       9.95742620       0.01368521      -0.01896471      -0.03015467
O        3.54692153       0.78814187      14.94132068      -0.05505555       0.06209548       0.03364880
10
Lattice="3.940949890606662 0.0 0.0 0.0 3.940949890606662 0.0 0.0 0.0 26.940967945119528" Properties=species:S:1:pos:R:3:forces:R:3 tau=tau47 tau_p=4 tau_q=7 stage=B constraint=xy_fixed_z_free force_label=raw_dft energy=-15499.264233243923 free_energy=-15499.264233243923 stress="0.010375181051753803 -4.3153407914374227e-05 0.0012183951553696724 -4.3153407914374227e-05 0.010119015077113158 -0.0018767141654676793 0.0012183951553696724 -0.0018767141654676793 -0.0015654587339150653" pbc="T T T"
Sr       0.00003612       0.00009431      10.33205722      -0.00062966       0.00027588      -0.03273040
Sr       1.57628196       2.75865092      15.30938530      -0.08617027       0.17559940       0.02956357
Ti       1.97047269       1.97057450      11.76791293       0.09138652      -0.14118596      -0.02910694
Ti       3.54658072       0.78812580      16.75515136      -0.00907008       0.00621590       0.02576862
O        0.00000902       1.97050521      11.89701227       0.10782641       0.10782770      -0.03051282
O        1.57656794       0.78819359      16.89074729       0.00187768      -0.01315454       0.03140603
O        1.97049401       3.94093312      11.93113728      -0.06955117      -0.17507773      -0.02850711
O        3.54695139       2.75866935      16.89312078       0.00536795      -0.00352935       0.03090595
O        1.97043419       1.97038596       9.95526922       0.01361682      -0.01885698      -0.02707603
O        3.54692153       0.78814187      14.94352632      -0.05465394       0.06188594       0.03028914
10
Lattice="3.940949890606662 0.0 0.0 0.0 3.940949890606662 0.0 0.0 0.0 26.940967945119528" Properties=species:S:1:pos:R:3:forces:R:3 tau=tau47 tau_p=4 tau_q=7 stage=B constraint=xy_fixed_z_free force_label=raw_dft energy=-15499.265060469992 free_energy=-15499.265060469992 stress="0.010390789731212196 -4.1317092683975326e-05 0.0012101317368328772 -4.1317092683975326e-05 0.010152986908875537 -0.0018684507469308841 0.0012101317368328772 -0.0018684507469308841 -0.0015140419074638957" pbc="T T T"
Sr       0.00003612       0.00009431      10.33054344      -0.00064895       0.00032524      -0.04721831
Sr       1.57628196       2.75865092      15.31026551      -0.08556169       0.17445141       0.04698408
Ti       1.97047269       1.97057450      11.76431895       0.09087153      -0.14014209      -0.02238042
Ti       3.54658072       0.78812580      16.75908041      -0.00914567       0.00618067       0.01573644
O        0.00000902       1.97050521      11.89338837       0.10683988       0.10672906      -0.02469802
O        1.57656794       0.78819359      16.89419131       0.00185634      -0.01302804       0.02809804
O        1.97049401       3.94093312      11.92819447      -0.06899581      -0.17390042      -0.02747172
O        3.54695139       2.75866935      16.89649133       0.00532450      -0.00350107       0.02789518
O        1.97043419       1.97038596       9.95195617       0.01351398      -0.01868755      -0.02245524
O        3.54692153       0.78814187      14.94689000      -0.05405436       0.06157304       0.02550997
10
Lattice="3.940949890606662 0.0 0.0 0.0 3.940949890606662 0.0 0.0 0.0 26.940967945119528" Properties=species:S:1:pos:R:3:forces:R:3 tau=tau47 tau_p=4 tau_q=7 stage=B constraint=xy_fixed_z_free force_label=raw_dft energy=-15499.266186341 free_energy=-15499.266186341 stress="0.01041557998682258 -3.9480777453576426e-05 0.0011981956878352846 -3.9480777453576426e-05 0.010205321892941906 -0.0018546783827028924 0.0011981956878352846 -0.0018546783827028924 -0.0014341621949415435" pbc="T T T"
Sr       0.00003612       0.00009431      10.32782780      -0.00067697       0.00039441      -0.06651932
Sr       1.57628196       2.75865092      15.31207182      -0.08460446       0.17258710       0.06999648
Ti       1.97047269       1.97057450      11.75889165       0.09006652      -0.13858529      -0.01294473
Ti       3.54658072       0.78812580      16.76497400      -0.00919684       0.00611305       0.00222375
O        0.00000902       1.97050521      11.88788475       0.10531778       0.10506376      -0.01656767
O        1.57656794       0.78819359      16.89947418       0.00181957      -0.01281875       0.02344975
O        1.97049401       3.94093312      11.92362908      -0.06812986      -0.17199703      -0.02612549
O        3.54695139       2.75866935      16.90166776       0.00524042      -0.00344888       0.02361918
O        1.97043419       1.97038596       9.94689573       0.01334557      -0.01841398      -0.01651497
O        3.54692153       0.78814187      14.95200320      -0.05318173       0.06110561       0.01938278
10
Lattice="3.940949890606662 0.0 0.0 0.0 3.940949890606662 0.0 0.0 0.0 26.940967945119528" Properties=species:S:1:pos:R:3:forces:R:3 tau=tau47 tau_p=4 tau_q=7 stage=B constraint=xy_fixed_z_free force_label=raw_dft energy=-15499.267651129792 free_energy=-15499.267651129792 stress="0.010444961030508963 -3.580814699277862e-05 0.001178914377916096 -3.580814699277862e-05 0.010272347398851467 -0.0018326425999381055 0.001178914377916096 -0.0018326425999381055 -0.001321228808272011" pbc="T T T"
Sr       0.00003612       0.00009431      10.32310052      -0.00068417       0.00046563      -0.09128907
Sr       1.57628196       2.75865092      15.31548768      -0.08307491       0.16960051       0.09966984
Ti       1.97047269       1.97057450      11.75070842       0.08875628      -0.13619751      -0.00027768
Ti       3.54658072       0.78812580      16.77381437      -0.00937527       0.00620279      -0.01594598
O        0.00000902       1.97050521      11.87953797       0.10301742       0.10250988      -0.00513089
O        1.57656794       0.78819359      16.90756625       0.00179283      -0.01249633       0.01692532
O        1.97049401       3.94093312      11.91655452      -0.06675869      -0.16900915      -0.02423573
O        3.54695139       2.75866935      16.90960474       0.00512318      -0.00341108       0.01764934
O        1.97043419       1.97038596       9.93916045       0.01309694      -0.01801443      -0.00835094
O        3.54692153       0.78814187      14.95978504      -0.05189386       0.06034945       0.01098581
10
Lattice="3.940949890606662 0.0 0.0 0.0 3.940949890606662 0.0 0.0 0.0 26.940967945119528" Properties=species:S:1:pos:R:3:forces:R:3 tau=tau47 tau_p=4 tau_q=7 stage=B constraint=xy_fixed_z_free force_label=raw_dft energy=-15499.269425039907 free_energy=-15499.269425039907 stress="0.010490868911268934 -3.2135516531980806e-05 0.001150451491844913 -3.2135516531980806e-05 0.010371508421293007 -0.0017977526105605263 0.001150451491844913 -0.0017977526105605263 -0.0011476970189993147" pbc="T T T"
Sr       0.00003612       0.00009431      10.31497071      -0.00070680       0.00048774      -0.12229889
Sr       1.57628196       2.75865092      15.32173332      -0.08071644       0.16489153       0.13710948
Ti       1.97047269       1.97057450      11.73835891       0.08669683      -0.13265478       0.01629565
Ti       3.54658072       0.78812580      16.78707494      -0.00944546       0.00644138      -0.04001716
O        0.00000902       1.97050521      11.86688200       0.09952303       0.09867225       0.01058986
O        1.57656794       0.78819359      16.91997477       0.00173987      -0.01200268       0.00787735
O        1.97049401       3.94093312      11.90556968      -0.06465656      -0.16430660      -0.02169703
O        3.54695139       2.75866935      16.92179000       0.00493395      -0.00331441       0.00945549
O        1.97043419       1.97038596       9.92732449       0.01268351      -0.01738426       0.00240192
O        3.54692153       0.78814187      14.97164114      -0.05005192       0.05916983       0.00028411
10
Lattice="3.940949890606662 0.0 0.0 0.0 3.940949890606662 0.0 0.0 0.0 26.940967945119528" Properties=species:S:1:pos:R:3:forces:R:3 tau=tau47 tau_p=4 tau_q=7 stage=B constraint=xy_fixed_z_free force_label=raw_dft energy=-15499.271426573247 free_energy=-15499.271426573247 stress="0.010552385471487298 -2.754472845598355e-05 0.0011063799263153393 -2.754472845598355e-05 0.010505559433112127 -0.0017426631536485594 0.0011063799263153393 -0.0017426631536485594 -0.0008896947291282687" pbc="T T T"
Sr       0.00003612       0.00009431      10.30089725      -0.00067080       0.00044634      -0.15744022
Sr       1.57628196       2.75865092      15.33313230      -0.07702511       0.15745821       0.17849472
Ti       1.97047269       1.97057450      11.71967967       0.08270905      -0.12726112       0.03266715
Ti       3.54658072       0.78812580      16.80696578      -0.00905003       0.00691447      -0.06711299
O        0.00000902       1.97050521      11.84766145       0.09433455       0.09294692       0.03193130
O        1.57656794       0.78819359      16.93908331       0.00167225      -0.01128457      -0.00431354
O        1.97049401       3.94093312      11.88839131      -0.06137789      -0.15690260      -0.01764034
O        3.54695139       2.75866935      16.94058606       0.00470152      -0.00319434      -0.00119839
O        1.97043419       1.97038596       9.90912946       0.01205667      -0.01639618       0.01600486
O        3.54692153       0.78814187      14.98979339      -0.04735021       0.05727287      -0.01139230
10
Lattice="3.940949890606662 0.0 0.0 0.0 3.940949890606662 0.0 0.0 0.0 26.940967945119528" Properties=species:S:1:pos:R:3:forces:R:3 tau=tau47 tau_p=4 tau_q=7 stage=B constraint=xy_fixed_z_free force_label=raw_dft energy=-15499.27358389176 free_energy=-15499.27358389176 stress="0.01061849281978166 -2.3872097995185745e-05 0.0010476178389425743 -2.3872097995185745e-05 0.01064879202108324 -0.0016673742292022042 0.0010476178389425743 -0.0016673742292022042 -0.0005876208737276491" pbc="T T T"
Sr       0.00003612       0.00009431      10.27977441      -0.00064586       0.00029311      -0.18207576
Sr       1.57628196       2.75865092      15.35106048      -0.07225443       0.14751936       0.20757904
Ti       1.97047269       1.97057450      11.69551396       0.07722874      -0.11995405       0.04385351
Ti       3.54658072       0.78812580      16.83231176      -0.00771434       0.00713044      -0.08758283
O        0.00000902       1.97050521      11.82292312       0.08765431       0.08574912       0.05310819
O        1.57656794       0.78819359      16.96418625       0.00146064      -0.01035538      -0.01724670
O        1.97049401       3.94093312      11.86536837      -0.05712888      -0.14697814      -0.01357825
O        3.54695139       2.75866935      16.96535320       0.00440918      -0.00295214      -0.01179674
O        1.97043419       1.97038596       9.88526424       0.01107477      -0.01509186       0.02574831
O        3.54692153       0.78814187      15.01356418      -0.04408413       0.05463954      -0.01800878
10
Lattice="3.940949890606662 0.0 0.0 0.0 3.940949890606662 0.0 0.0 0.0 26.940967945119528" Properties=species:S:1:pos:R:3:forces:R:3 tau=tau47 tau_p=4 tau_q=7 stage=B constraint=xy_fixed_z_free force_label=raw_dft energy=-15499.276175503961 free_energy=-15499.276175503961 stress="0.010697454374688812 -2.1117625149587388e-05 0.0009842649634938122 -2.1117625149587388e-05 0.010793860924284755 -0.001581067413373456 0.0009842649634938122 -0.001581067413373456 -0.0003195188500894092" pbc="T T T"
Sr       0.00003612       0.00009431      10.25307077      -0.00055562       0.00013061      -0.18397246
Sr       1.57628196       2.75865092      15.37458091      -0.06694510       0.13652326       0.21733741
Ti       1.97047269       1.97057450      11.66896880       0.07202148      -0.11154654       0.05471873
Ti       3.54658072       0.78812580      16.85963146      -0.00747805       0.00653754      -0.08673719
O        0.00000902       1.97050521      11.79611205       0.08064831       0.07832197       0.06385309
O        1.57656794       0.78819359      16.99206683       0.00133157      -0.00933902      -0.02899587
O        1.97049401       3.94093312      11.83916186      -0.05248007      -0.13597073      -0.01455116
O        3.54695139       2.75866935      16.99299024       0.00409731      -0.00263358      -0.02203024
O        1.97043419       1.97038596       9.85866222       0.01006176      -0.01373458       0.02708323
O        3.54692153       0.78814187      15.04007482      -0.04070159       0.05171080      -0.02670553
10
Lattice="3.940949890606662 0.0 0.0 0.0 3.940949890606662 0.0 0.0 0.0 26.940967945119528" Properties=species:S:1:pos:R:3:forces:R:3 tau=tau47 tau_p=4 tau_q=7 stage=B constraint=xy_fixed_z_free force_label=raw_dft energy=-15499.279784821914 free_energy=-15499.279784821914 stress="0.010829669071277533 -1.3772364227991774e-05 0.0009016307781258615 -1.3772364227991774e-05 0.01098575586586144 -0.0014617069233975272 0.0009016307781258615 -0.0014617069233975272 3.029920130158191e-05" pbc="T T T"
Sr       0.00003612       0.00009431      10.21124990      -0.00033527      -0.00004859      -0.15404559
Sr       1.57628196       2.75865092      15.41268397      -0.05963237       0.12170291       0.20282559
Ti       1.97047269       1.97057450      11.63222967       0.06515870      -0.10073839       0.06517232
Ti       3.54658072       0.78812580      16.89738908      -0.00717826       0.00590171      -0.07902028
O        0.00000902       1.97050521      11.75921058       0.07152680       0.06890171       0.06309641
O        1.57656794       0.78819359      17.03117448       0.00117577      -0.00797916      -0.03818885
O        1.97049401       3.94093312      11.80119633      -0.04637962      -0.12111490      -0.02124014
O        3.54695139       2.75866935      17.03193746       0.00348950      -0.00234639      -0.03184028
O        1.97043419       1.97038596       9.82090976       0.00888882      -0.01205102       0.02492633
O        3.54692153       0.78814187      15.07733871      -0.03671432       0.04777238      -0.03168576
10
Lattice="3.940949890606662 0.0 0.0 0.0 3.940949890606662 0.0 0.0 0.0 26.940967945119528" Properties=species:S:1:pos:R:3:forces:R:3 tau=tau47 tau_p=4 tau_q=7 stage=B constraint=xy_fixed_z_free force_label=raw_dft energy=-15499.283598905537 free_energy=-15499.283598905537 stress="0.010948111403638262 -4.590788075997259e-06 0.0008327689569859026 -4.590788075997259e-06 0.011093180306839775 -0.0013561187976495902 0.0008327689569859026 -0.0013561187976495902 0.0003103372739374147" pbc="T T T"
Sr       0.00003612       0.00009431      10.16865540      -0.00000643      -0.00039904      -0.08025184
Sr       1.57628196       2.75865092      15.45380436      -0.05360802       0.10880497       0.13527602
Ti       1.97047269       1.97057450      11.60202993       0.05828331      -0.09260702       0.03789035
Ti       3.54658072       0.78812580      16.92833825      -0.00567442       0.00628532      -0.04268494
O        0.00000902       1.97050521      11.72882747       0.06418348       0.06157972       0.04384939
O        1.57656794       0.78819359      17.06445682       0.00089552      -0.00692270      -0.03349582
O        1.97049401       3.94093312      11.76658738      -0.04115513      -0.10836608      -0.02891026
O        3.54695139       2.75866935      17.06532789       0.00315551      -0.00209931      -0.03169579
O        1.97043419       1.97038596       9.78807366       0.00788249      -0.01082177       0.02242696
O        3.54692153       0.78814187      15.10921880      -0.03395605       0.04454616      -0.02240382
10
Lattice="3.940949890606662 0.0 0.0 0.0 3.940949890606662 0.0 0.0 0.0 26.940967945119528" Properties=species:S:1:pos:R:3:forces:R:3 tau=tau47 tau_p=4 tau_q=7 stage=B constraint=xy_fixed_z_free force_label=raw_dft energy=-15499.285361795039 free_energy=-15499.285361795039 stress="0.010949029561253461 -4.590788075997259e-06 0.0007859429186107306 -4.590788075997259e-06 0.011024318485699815 -0.0012789935579728363 0.0007859429186107306 -0.0012789935579728363 0.0004498972314477313" pbc="T T T"
Sr       0.00003612       0.00009431      10.13587080       0.00017766      -0.00058493       0.00276034
Sr       1.57628196       2.75865092      15.48765991      -0.04958861       0.09966753       0.02887452
Ti       1.97047269       1.97057450      11.58277001       0.05409704      -0.08692566      -0.00325399
Ti       3.54658072       0.78812580      16.94792178      -0.00490001       0.00621384      -0.01866801
O        0.00000902       1.97050521      11.70986303       0.05938451       0.05691368       0.02250821
O        1.57656794       0.78819359      17.08599163       0.00073122      -0.00618067      -0.01481367
O        1.97049401       3.94093312      11.74167571      -0.03764069      -0.09946338      -0.02805176
O        3.54695139       2.75866935      17.08703238       0.00288324      -0.00189207      -0.01431307
O        1.97043419       1.97038596       9.76634824       0.00719318      -0.00999902       0.00936807
O        3.54692153       0.78814187      15.13018646      -0.03233754       0.04225042       0.01558963
10
Lattice="3.940949890606662 0.0 0.0 0.0 3.940949890606662 0.0 0.0 0.0 26.940967945119528" Properties=species:S:1:pos:R:3:forces:R:3 tau=tau47 tau_p=4 tau_q=7 stage=B constraint=xy_fixed_z_free force_label=raw_dft energy=-15499.285479756387 free_energy=-15499.285479756387 stress="0.01090220352287829 -4.590788075997259e-06 0.000788697391456329 -4.590788075997259e-06 0.010939847985101466 -0.0012808298732032352 0.000788697391456329 -0.0012808298732032352 0.00033696384477819875" pbc="T T T"
Sr       0.00003612       0.00009431      10.13699229       0.00019155      -0.00060755       0.01237369
Sr       1.57628196       2.75865092      15.48779227      -0.04980330       0.09988607       0.01136916
Ti       1.97047269       1.97057450      11.58508667       0.05429039      -0.08730464      -0.00198721
Ti       3.54658072       0.78812580      16.94494383      -0.00490592       0.00620767      -0.00151515
O        0.00000902       1.97050521      11.71286612       0.05973058       0.05729601       0.01687981
O        1.57656794       0.78819359      17.08328475       0.00073508      -0.00621281      -0.00971157
O        1.97049401       3.94093312      11.74289946      -0.03773094      -0.09964567      -0.02551023
O        3.54695139       2.75866935      17.08439490       0.00289301      -0.00190339      -0.00950408
O        1.97043419       1.97038596       9.76874713       0.00721734      -0.01006150       0.00079216
O        3.54692153       0.78814187      15.12831254      -0.03261830       0.04234555       0.00681342
