10
Lattice="3.940949890606662 0.0 0.0 0.0 3.940949890606662 0.0 0.0 0.0 26.940967945119528" Properties=species:S:1:pos:R:3:forces:R:3 tau=tau31 tau_p=3 tau_q=1 stage=A constraint=rigid_scf force_label=raw_dft energy=-15498.575424409175 free_energy=-15498.575424409175 stress="0.015071557253499 0.0012633848785144456 0.016220172430113516 0.0012633848785144456 0.007172647289938117 0.0032548687458820564 0.016220172430113516 0.0032548687458820564 -0.01687940959782672" pbc="T T T"
Sr       0.00003626       0.00009419      10.75260867       0.00583255      -0.00333498       0.28869426
Sr       1.18218684       0.39408080      14.64522241      -0.90392531      -0.52876613       3.06211290
Ti       1.97047258       1.97057465      12.38212169       0.62023107       0.75423825      -1.57410572
Ti       3.15248562       2.36450570      16.28444791      -0.17203226      -0.01544076       0.03917436
O        0.00000906       1.97050529      12.45001441       1.94644131      -0.60706137      -2.07835947
O        1.18247295       2.36457348      16.39256827       0.01366824       0.04769833      -0.18375494
O        1.97049386       3.94093294      12.44909065      -0.04590473       0.31508252      -0.77361332
O        3.15285647       0.39409932      16.37955485      -0.04896306      -0.00420478      -0.03139394
O        1.97043435       1.97038588      10.49176941       0.28436118       0.08885964       0.25452019
O        3.15282651       2.36452185      14.44792112      -1.69970899      -0.04707047       0.99672542
