10
Lattice="3.940949890606662 0.0 0.0 0.0 3.940949890606662 0.0 0.0 0.0 26.940967945119528" Properties=species:S:1:pos:R:3:forces:R:3 tau=tau29 tau_p=2 tau_q=9 stage=B constraint=xy_fixed_z_free force_label=raw_dft energy=-15499.600670848386 free_energy=-15499.600670848386 stress="0.011263039465651672 -0.000892449201973867 0.013128735739736962 -0.000892449201973867 0.008566410549810884 -0.005569544093799874 0.013128735739736962 -0.005569544093799874 -0.006718159270414388" pbc="T T T"
Sr       0.00003626       0.00009419      10.75260867       0.00034196       0.00203014       0.19531205
Sr       0.78809185       3.54684071      14.64522241      -0.70659031       0.45155796       1.63874968
Ti       1.97047258       1.97057465      12.38212169       0.59847954      -0.55443371      -0.63533142
Ti       2.75839063       1.57631572      16.28444791      -0.12458615       0.03778159      -0.01529704
O        0.00000906       1.97050529      12.45001441       1.64862143       0.40855832      -1.02814430
O        0.78837796       1.57638350      16.39256827      -0.00158097      -0.00591431      -0.08296898
O        1.97049386       3.94093294      12.44909065      -0.27751151      -0.67090752      -0.40651429
O        2.75876148       3.54685924      16.37955485      -0.03960527       0.00852321      -0.01163938
O        1.97043435       1.97038588      10.49176941       0.27111460      -0.12742130       0.17348441
O        2.75873153       1.57633188      14.44792112      -1.36868306       0.45022562       0.17234953
10
Lattice="3.940949890606662 0.0 0.0 0.0 3.940949890606662 0.0 0.0 0.0 26.940967945119528" Properties=species:S:1:pos:R:3:forces:R:3 tau=tau29 tau_p=2 tau_q=9 stage=B constraint=xy_fixed_z_free force_label=raw_dft energy=-15499.681539815869 free_energy=-15499.681539815869 stress="0.010236539251858688 -0.0008419505331378973 0.012281276260907865 -0.0008419505331378973 0.007771286055048159 -0.0053097054886984294 0.012281276260907865 -0.0053097054886984294 -0.007067977321805379" pbc="T T T"
Sr       0.00003612       0.00009431      10.75662857       0.00072145       0.00169384       0.17625169
Sr       0.78809198       3.54684090      14.67895098      -0.61221463       0.40966878       1.26703270
Ti       1.97047269       1.97057450      12.36904575       0.55801989      -0.50469675      -0.46695784
Ti       2.75839074       1.57631578      16.28413308      -0.11962752       0.03761473      -0.04917132
O        0.00000902       1.97050521      12.42885349       1.54679520       0.39976566      -0.86462394
O        0.78837796       1.57638358      16.39086068       0.00040469      -0.00652546      -0.01708807
O        1.97049401       3.94093312      12.44072387      -0.31413738      -0.66017393      -0.28591876
O        2.75876140       3.54685933      16.37931525      -0.03744452       0.00710216       0.05362267
O        1.97043419       1.97038596      10.49534000       0.26543761      -0.12488465      -0.02938874
O        2.75873155       1.57633185      14.45146830      -1.28795505       0.44043563       0.21624186
10
Lattice="3.940949890606662 0.0 0.0 0.0 3.940949890606662 0.0 0.0 0.0 26.940967945119528" Properties=species:S:1:pos:R:3:forces:R:3 tau=tau29 tau_p=2 tau_q=9 stage=B constraint=xy_fixed_z_free force_label=raw_dft energy=-15499.750470332907 free_energy=-15499.750470332907 stress="0.00900896252033702 -0.0007914518643019274 0.011384236270858003 -0.0007914518643019274 0.006824665553777524 -0.005045276095520987 0.011384236270858003 -0.005045276095520987 -0.007506856661870717" pbc="T T T"
Sr       0.00003612       0.00009431      10.76174527       0.00030905       0.00173112       0.11493320
Sr       0.78809198       3.54684090      14.71605209      -0.52256540       0.36974238       0.89006732
Ti       1.97047269       1.97057450      12.35532977       0.52317219      -0.45742316      -0.35711852
Ti       2.75839074       1.57631578      16.28275877      -0.11289740       0.03717352       0.00399884
O        0.00000902       1.97050521      12.40365794       1.43097189       0.38427811      -0.66451087
O        0.78837796       1.57638358      16.39027774       0.00261147      -0.00724923       0.04540260
O        1.97049401       3.94093312      12.43230182      -0.34380869      -0.64514403      -0.16219136
O        2.75876140       3.54685933      16.38077554      -0.03529353       0.00532887       0.11343167
O        1.97043419       1.97038596      10.49476636       0.25683932      -0.12053717      -0.16591920
O        2.75873155       1.57633185      14.45765466      -1.19933889       0.43209934       0.18190658
10
Lattice="3.940949890606662 0.0 0.0 0.0 3.940949890606662 0.0 0.0 0.0 26.940967945119528" Properties=species:S:1:pos:R:3:forces:R:3 tau=tau29 tau_p=2 tau_q=9 stage=B constraint=xy_fixed_z_free force_label=raw_dft energy=-15499.817508026084 free_energy=-15499.817508026084 stress="0.007020233125815008 -0.0007326897769291624 0.010123605865189155 -0.0007326897769291624 0.005284915233088044 -0.004687194625593201 0.010123605865189155 -0.004687194625593201 -0.008080705171370375" pbc="T T T"
Sr       0.00003612       0.00009431      10.76900335      -0.00058518       0.00205843      -0.01724439
Sr       0.78809198       3.54684090      14.77170376      -0.40882751       0.31854863       0.35846372
Ti       1.97047269       1.97057450      12.33350012       0.47904074      -0.39551717      -0.23482939
Ti       2.75839074       1.57631578      16.28237080      -0.10239495       0.03639602       0.09476778
O        0.00000902       1.97050521      12.36361975       1.26311022       0.35503644      -0.36534502
O        0.78837796       1.57638358      16.39170244       0.00542143      -0.00825041       0.14266280
O        1.97049401       3.94093312      12.42122336      -0.37379983      -0.62074992      -0.01504455
O        2.75876140       3.54685933      16.38599930      -0.03217376       0.00264618       0.20132149
O        1.97043419       1.97038596      10.48817143       0.24168087      -0.11223277      -0.29017470
O        2.75873155       1.57633185      14.46802566      -1.07147202       0.42206458       0.12542227
10
Lattice="3.940949890606662 0.0 0.0 0.0 3.940949890606662 0.0 0.0 0.0 26.940967945119528" Properties=species:S:1:pos:R:3:forces:R:3 tau=tau29 tau_p=2 tau_q=9 stage=B constraint=xy_fixed_z_free force_label=raw_dft energy=-15499.847319457678 free_energy=-15499.847319457678 stress="0.005069148193516173 -0.0006904545266299876 0.008955709378655452 -0.0006904545266299876 0.003807599630232126 -0.00437134840596459 0.008955709378655452 -0.00437134840596459 -0.00829004510763585" pbc="T T T"
Sr       0.00003612       0.00009431      10.77357940      -0.00184502       0.00263821      -0.18429873
Sr       0.78809198       3.54684090      14.82669873      -0.31539671       0.27607940      -0.12206158
Ti       1.97047269       1.97057450      12.30830441       0.44367496      -0.34326644      -0.14055964
Ti       2.75839074       1.57631578      16.28569660      -0.09251061       0.03575068       0.17576781
O        0.00000902       1.97050521      12.32052126       1.10323723       0.32036897      -0.07740075
O        0.78837796       1.57638358      16.39777825       0.00757524      -0.00899475       0.23558016
O        1.97049401       3.94093312      12.41207743      -0.39019396      -0.59515999       0.07503070
O        2.75876140       3.54685933      16.39697729      -0.02911826       0.00005451       0.27669338
O        1.97043419       1.97038596      10.47364814       0.22368932      -0.10178689      -0.32343501
O        2.75873155       1.57633185      14.48003846      -0.94911245       0.41431631       0.08468391
10
Lattice="3.940949890606662 0.0 0.0 0.0 3.940949890606662 0.0 0.0 0.0 26.940967945119528" Properties=species:S:1:pos:R:3:forces:R:3 tau=tau29 tau_p=2 tau_q=9 stage=B constraint=xy_fixed_z_free force_label=raw_dft energy=-15499.856365338019 free_energy=-15499.856365338019 stress="0.004866235360557094 -0.0006794366352475943 0.008636190528566044 -0.0006794366352475943 0.003781891217006541 -0.004296059481518235 0.008636190528566044 -0.004296059481518235 -0.007748332114668173" pbc="T T T"
Sr       0.00003612       0.00009431      10.77056947      -0.00222812       0.00279582      -0.22837207
Sr       0.78809198       3.54684090      14.84033512      -0.29250284       0.26501954      -0.20457805
Ti       1.97047269       1.97057450      12.29752796       0.43819388      -0.33058062      -0.11359237
Ti       2.75839074       1.57631578      16.29070693      -0.09055682       0.03615485       0.18769490
O        0.00000902       1.97050521      12.30620561       1.05534632       0.30799245      -0.01436732
O        0.78837796       1.57638358      16.40476232       0.00789689      -0.00919324       0.23599256
O        1.97049401       3.94093312      12.41080127      -0.39184229      -0.58822212       0.05730218
O        2.75876140       3.54685933      16.40626707      -0.02817672      -0.00078239       0.26762690
O        1.97043419       1.97038596      10.46280820       0.21587805      -0.09720955      -0.26720421
O        2.75873155       1.57633185      14.48533601      -0.91200809       0.41402500       0.07949748
10
Lattice="3.940949890606662 0.0 0.0 0.0 3.940949890606662 0.0 0.0 0.0 26.940967945119528" Properties=species:S:1:pos:R:3:forces:R:3 tau=tau29 tau_p=2 tau_q=9 stage=B constraint=xy_fixed_z_free force_label=raw_dft energy=-15499.869035910742 free_energy=-15499.869035910742 stress="0.005059966617364178 -0.0006684187438652008 0.008330444042704624 -0.0006684187438652008 0.004192307671000696 -0.004230870290839074 0.008330444042704624 -0.004230870290839074 -0.006686023753882407" pbc="T T T"
Sr       0.00003612       0.00009431      10.76282847      -0.00244409       0.00287912      -0.25513674
Sr       0.78809198       3.54684090      14.85136223      -0.27212247       0.25480558      -0.23193227
Ti       1.97047269       1.97057450      12.28377131       0.43617094      -0.31997585      -0.07452934
Ti       2.75839074       1.57631578      16.29965238      -0.08973716       0.03721595       0.18644663
O        0.00000902       1.97050521      12.29065623       1.00579499       0.29419848       0.02636975
O        0.78837796       1.57638358      16.41649103       0.00800539      -0.00934313       0.21067002
O        1.97049401       3.94093312      12.41004992      -0.39151653      -0.58097213       0.00571505
O        2.75876140       3.54685933      16.42098581      -0.02709274      -0.00166813       0.22987308
O        1.97043419       1.97038596      10.44706099       0.20617291      -0.09153282      -0.17839008
O        2.75873155       1.57633185      14.49246159      -0.87323122       0.41439267       0.08091416
10
Lattice="3.940949890606662 0.0 0.0 0.0 3.940949890606662 0.0 0.0 0.0 26.940967945119528" Properties=species:S:1:pos:R:3:forces:R:3 tau=tau29 tau_p=2 tau_q=9 stage=B constraint=xy_fixed_z_free force_label=raw_dft energy=-15499.885465464034 free_energy=-15499.885465464034 stress="0.005741239567842171 -0.0006491374339460123 0.007978789676083235 -0.0006491374339460123 0.005182999737800905 -0.004161090312083915 0.007978789676083235 -0.004161090312083915 -0.004893780089013078" pbc="T T T"
Sr       0.00003612       0.00009431      10.74733368      -0.00255850       0.00278656      -0.25879130
Sr       0.78809198       3.54684090      14.86157398      -0.25078926       0.24395218      -0.20283381
Ti       1.97047269       1.97057450      12.26437921       0.43680832      -0.30942172      -0.01804554
Ti       2.75839074       1.57631578      16.31521936      -0.08969782       0.03905480       0.16692476
O        0.00000902       1.97050521      12.27071705       0.94507350       0.27656097       0.05157119
O        0.78837796       1.57638358      16.43588104       0.00785935      -0.00940561       0.15433818
O        1.97049401       3.94093312      12.40849441      -0.38876031      -0.57044063      -0.08269645
O        2.75876140       3.54685933      16.44460664      -0.02560793      -0.00267498       0.15625108
O        1.97043419       1.97038596      10.42357130       0.19296592      -0.08403522      -0.05409010
O        2.75873155       1.57633185      14.50354329      -0.82529352       0.41362314       0.08737226
10
Lattice="3.940949890606662 0.0 0.0 0.0 3.940949890606662 0.0 0.0 0.0 26.940967945119528" Properties=species:S:1:pos:R:3:forces:R:3 tau=tau29 tau_p=2 tau_q=9 stage=B constraint=xy_fixed_z_free force_label=raw_dft energy=-15499.900879080313 free_energy=-15499.900879080313 stress="0.007055123115192587 -0.0006133292869532338 0.00757112769493468 -0.0006133292869532338 0.0069274992066798635 -0.004078456126715964 0.00757112769493468 -0.004078456126715964 -0.002264176679081848" pbc="T T T"
Sr       0.00003612       0.00009431      10.71977783      -0.00243715       0.00245977      -0.21659076
Sr       0.78809198       3.54684090      14.87053441      -0.22889272       0.23289052      -0.09910960
Ti       1.97047269       1.97057450      12.23824811       0.43909480      -0.29908229       0.04461584
Ti       2.75839074       1.57631578      16.34048621      -0.09033468       0.04180254       0.12233000
O        0.00000902       1.97050521      12.24516585       0.87079459       0.25461892       0.05785779
O        0.78837796       1.57638358      16.46566088       0.00742766      -0.00937604       0.06220501
O        1.97049401       3.94093312      12.40351719      -0.38197723      -0.55290982      -0.19928158
O        2.75876140       3.54685933      16.48003787      -0.02348806      -0.00368902       0.04252785
O        1.97043419       1.97038596      10.39099089       0.17592928      -0.07484147       0.09200101
O        2.75873155       1.57633185      14.52090072      -0.76611675       0.40812715       0.09344443
10
Lattice="3.940949890606662 0.0 0.0 0.0 3.940949890606662 0.0 0.0 0.0 26.940967945119528" Properties=species:S:1:pos:R:3:forces:R:3 tau=tau29 tau_p=2 tau_q=9 stage=B constraint=xy_fixed_z_free force_label=raw_dft energy=-15499.906725854307 free_energy=-15499.906725854307 stress="0.008067850964757583 -0.000579357455190854 0.007370969334821198 -0.000579357455190854 0.00815599409581673 -0.004032548245955992 0.007370969334821198 -0.004032548245955992 -0.0006867818961691899" pbc="T T T"
Sr       0.00003612       0.00009431      10.69776727      -0.00203349       0.00203580      -0.14661073
Sr       0.78809198       3.54684090      14.87324481      -0.21995299       0.22850191      -0.00569859
Ti       1.97047269       1.97057450      12.22369168       0.44155149      -0.29566427       0.06617685
Ti       2.75839074       1.57631578      16.35892545      -0.09088001       0.04342722       0.07747119
O        0.00000902       1.97050521      12.23126137       0.83020690       0.24294508       0.05014474
O        0.78837796       1.57638358      16.48537179       0.00696795      -0.00928760       0.00670647
O        1.97049401       3.94093312      12.39562828      -0.37527436      -0.53751148      -0.24049122
O        2.75876140       3.54685933      16.50269029      -0.02196468      -0.00403766      -0.02328211
O        1.97043419       1.97038596      10.37292629       0.16633418      -0.07033536       0.13365494
O        2.75873155       1.57633185      14.53381275      -0.73495550       0.39992584       0.08192846
10
Lattice="3.940949890606662 0.0 0.0 0.0 3.940949890606662 0.0 0.0 0.0 26.940967945119528" Properties=species:S:1:pos:R:3:forces:R:3 tau=tau29 tau_p=2 tau_q=9 stage=B constraint=xy_fixed_z_free force_label=raw_dft energy=-15499.910250816973 free_energy=-15499.910250816973 stress="0.008752796545696372 -0.0005490582538892722 0.0072883351494532475 -0.0005490582538892722 0.008855630198598712 -0.004005003517500008 0.0072883351494532475 -0.004005003517500008 9.457023436554353e-05" pbc="T T T"
Sr       0.00003612       0.00009431      10.68162290      -0.00144959       0.00164653      -0.07114551
Sr       0.78809198       3.54684090      14.87391719      -0.21740760       0.22750972       0.05417957
Ti       1.97047269       1.97057450      12.21752798       0.44420641      -0.29611781       0.05000153
Ti       2.75839074       1.57631578      16.37132885      -0.09154053       0.04381083       0.03480965
O        0.00000902       1.97050521      12.22522103       0.80988618       0.23773834       0.04706481
O        0.78837796       1.57638358      16.49676768       0.00665813      -0.00915338      -0.01446271
O        1.97049401       3.94093312      12.38515002      -0.36918445      -0.52337787      -0.21745156
O        2.75876140       3.54685933      16.51493141      -0.02073260      -0.00402121      -0.04709695
O        1.97043419       1.97038596      10.36569108       0.16140357      -0.06873176       0.10661902
O        2.75873155       1.57633185      14.54316183      -0.72183927       0.39069661       0.05748215
10
Lattice="3.940949890606662 0.0 0.0 0.0 3.940949890606662 0.0 0.0 0.0 26.940967945119528" Properties=species:S:1:pos:R:3:forces:R:3 tau=tau29 tau_p=2 tau_q=9 stage=B constraint=xy_fixed_z_free force_label=raw_dft energy=-15499.913322982211 free_energy=-15499.913322982211 stress="0.009272473755899261 -0.0005141682645116929 0.007243345426308475 -0.0005141682645116929 0.009222893244678492 -0.003971949843352828 0.007243345426308475 -0.003971949843352828 0.00045081538906293077" pbc="T T T"
Sr       0.00003612       0.00009431      10.66674169      -0.00070088       0.00115468       0.01706698
Sr       0.78809198       3.54684090      14.87549507      -0.21663652       0.22726932       0.08590159
Ti       1.97047269       1.97057450      12.21517958       0.44613371      -0.29827959       0.00496583
Ti       2.75839074       1.57631578      16.38190853      -0.09205038       0.04362751      -0.01053381
O        0.00000902       1.97050521      12.22305727       0.79674245       0.23529142       0.05161952
O        0.78837796       1.57638358      16.50483823       0.00647532      -0.00892096      -0.01303781
O        1.97049401       3.94093312      12.36934274      -0.36193599      -0.50568251      -0.13825233
O        2.75876140       3.54685933      16.52236532      -0.01934344      -0.00383660      -0.04351335
O        1.97043419       1.97038596      10.36409770       0.15795058      -0.06860655       0.02693282
O        2.75873155       1.57633185      14.55229384      -0.71663484       0.37798276       0.01885081
10
Lattice="3.940949890606662 0.0 0.0 0.0 3.940949890606662 0.0 0.0 0.0 26.940967945119528" Properties=species:S:1:pos:R:3:forces:R:3 tau=tau29 tau_p=2 tau_q=9 stage=B constraint=xy_fixed_z_free force_label=raw_dft energy=-15499.914576338553 free_energy=-15499.914576338553 stress="0.00929175506581845 -0.0004994777426685017 0.007229573062080482 -0.0004994777426685017 0.009054870401096992 -0.003943486957281645 0.007229573062080482 -0.003943486957281645 0.00027636544217503496" pbc="T T T"
Sr       0.00003612       0.00009431      10.66286741      -0.00040958       0.00098113       0.04912324
Sr       0.78809198       3.54684090      14.87842710      -0.21576569       0.22651316       0.06502037
Ti       1.97047269       1.97057450      12.21600476       0.44463938      -0.29913088      -0.02796640
Ti       2.75839074       1.57631578      16.38428142      -0.09199484       0.04291248      -0.02312784
O        0.00000902       1.97050521      12.22500574       0.79555845       0.23598433       0.05755749
O        0.78837796       1.57638358      16.50577849       0.00661159      -0.00868801       0.00352087
O        1.97049401       3.94093312      12.35895932      -0.35794821      -0.49530631      -0.06773263
O        2.75876140       3.54685933      16.52181118      -0.01860296      -0.00367565      -0.02236397
O        1.97043419       1.97038596      10.36656437       0.15698745      -0.06933108      -0.03076865
O        2.75873155       1.57633185      14.55562017      -0.71907585       0.36974058      -0.00326247
10
Lattice="3.940949890606662 0.0 0.0 0.0 3.940949890606662 0.0 0.0 0.0 26.940967945119528" Properties=species:S:1:pos:R:3:forces:R:3 tau=tau29 tau_p=2 tau_q=9 stage=B constraint=xy_fixed_z_free force_label=raw_dft energy=-15499.915199207127 free_energy=-15499.915199207127 stress="0.009146686162616938 -0.0004948869545925045 0.0072093735945460945 -0.0004948869545925045 0.008754632860926773 -0.003910433283134464 0.0072093735945460945 -0.003910433283134464 3.397183176237971e-05" pbc="T T T"
Sr       0.00003612       0.00009431      10.66370342      -0.00038927       0.00098370       0.04687584
Sr       0.78809198       3.54684090      14.88219690      -0.21350466       0.22464165       0.02736811
Ti       1.97047269       1.97057450      12.21621277       0.44063823      -0.29814949      -0.04138525
Ti       2.75839074       1.57631578      16.38367508      -0.09169120       0.04218229      -0.01684278
O        0.00000902       1.97050521      12.22781728       0.79746981       0.23714467       0.05587496
O        0.78837796       1.57638358      16.50512581       0.00691267      -0.00846639       0.01758197
O        1.97049401       3.94093312      12.35236382      -0.35541619      -0.48877648      -0.02157773
O        2.75876140       3.54685933      16.51958819      -0.01815379      -0.00358849      -0.00354195
O        1.97043419       1.97038596      10.36811466       0.15623463      -0.06982062      -0.05370057
O        2.75873155       1.57633185      14.55652203      -0.72210049       0.36384915      -0.01065234
10
Lattice="3.940949890606662 0.0 0.0 0.0 3.940949890606662 0.0 0.0 0.0 26.940967945119528" Properties=species:S:1:pos:R:3:forces:R:3 tau=tau29 tau_p=2 tau_q=9 stage=B constraint=xy_fixed_z_free force_label=raw_dft energy=-15499.915596901505 free_energy=-15499.915596901505 stress="0.009023653042180212 -0.0004930506393621056 0.007170810974707718 -0.0004930506393621056 0.008516830038590113 -0.003872788820911287 0.007170810974707718 -0.003872788820911287 -7.437076683115559e-05" pbc="T T T"
Sr       0.00003612       0.00009431      10.66514431      -0.00048645       0.00106881       0.03134869
Sr       0.78809198       3.54684090      14.88611095      -0.21004190       0.22182527      -0.00541089
Ti       1.97047269       1.97057450      12.21445673       0.43532068      -0.29589027      -0.03754351
Ti       2.75839074       1.57631578      16.38326387      -0.09148628       0.04162796      -0.00524274
O        0.00000902       1.97050521      12.23018118       0.79846251       0.23771263       0.04389002
O        0.78837796       1.57638358      16.50571235       0.00725231      -0.00824707       0.02258483
O        1.97049401       3.94093312      12.34747687      -0.35301298      -0.48343116       0.00217233
O        2.75876140       3.54685933      16.51874902      -0.01776169      -0.00355481       0.00587857
O        1.97043419       1.97038596      10.36703683       0.15470379      -0.06971906      -0.04838816
O        2.75873155       1.57633185      14.55718786      -0.72295050       0.35860796      -0.00928914
10
Lattice="3.940949890606662 0.0 0.0 0.0 3.940949890606662 0.0 0.0 0.0 26.940967945119528" Properties=species:S:1:pos:R:3:forces:R:3 tau=tau29 tau_p=2 tau_q=9 stage=B constraint=xy_fixed_z_free force_label=raw_dft energy=-15499.915876770589 free_energy=-15499.915876770589 stress="0.009001617259415425 -0.0004921324817469061 0.007125821251562944 -0.0004921324817469061 0.00840573296715098 -0.003832389885842511 0.007125821251562944 -0.003832389885842511 -1.1017891382393419e-05" pbc="T T T"
Sr       0.00003612       0.00009431      10.66591197      -0.00062658       0.00117705       0.01260715
Sr       0.78809198       3.54684090      14.88934254      -0.20636445       0.21864276      -0.02342584
Ti       1.97047269       1.97057450      12.21106087       0.42980823      -0.29318701      -0.02117946
Ti       2.75839074       1.57631578      16.38390135      -0.09148011       0.04128446       0.00540626
O        0.00000902       1.97050521      12.23213816       0.79847948       0.23776045       0.02175488
O        0.78837796       1.57638358      16.50797948       0.00756933      -0.00803418       0.01801598
O        1.97049401       3.94093312      12.34342975      -0.35039277      -0.47855840       0.00863788
O        2.75876140       3.54685933      16.51966653      -0.01737166      -0.00354041       0.00572328
O        1.97043419       1.97038596      10.36368816       0.15246282      -0.06915188      -0.02445479
O        2.75873155       1.57633185      14.55820116      -0.72208404       0.35360742      -0.00308558
