10
Lattice="3.940949890606662 0.0 0.0 0.0 3.940949890606662 0.0 0.0 0.0 26.940967945119528" Properties=species:S:1:pos:R:3:forces:R:3 tau=tau56 tau_p=5 tau_q=6 stage=A constraint=rigid_scf force_label=raw_dft energy=-15496.406914398356 free_energy=-15496.406914398356 stress="0.0189259829221063 0.0 -0.0 0.0 0.015028403845584626 -0.0049387698121578505 -0.0 -0.0049387698121578505 -0.026218908859635546" pbc="T T T"
Sr       0.00003626       0.00009419      10.75260867      -0.00009487       0.00480668       0.70543975
Sr       1.97037682       2.36455575      14.64522241      -0.00066489       1.21494215       6.61362604
Ti       1.97047258       1.97057465      12.38212169       0.00025865      -1.10972849      -7.39053885
Ti       3.94067560       0.39403075      16.28444791       0.00068366      -0.04343750      -1.07014713
O        0.00000906       1.97050529      12.45001441      -0.00000463       0.54115165      -0.35701979
O        1.97066293       0.39409854      16.39256827      -0.00074665      -0.06283416      -0.12452290
O        1.97049386       3.94093294      12.44909065      -0.00001671      -0.33601387      -0.22421099
O        0.00009655       2.36457427      16.37955485       0.00059341       0.00121459      -0.06964193
O        1.97043435       1.97038588      10.49176941       0.00016764      -0.04048048       0.43993992
O        0.00006660       0.39404691      14.44792112      -0.00017586      -0.16962082       1.47707614
