10
Lattice="3.940949890606662 0.0 0.0 0.0 3.940949890606662 0.0 0.0 0.0 26.940967945119528" Properties=species:S:1:pos:R:3:forces:R:3 tau=tau84 tau_p=8 tau_q=4 stage=A constraint=rigid_scf force_label=raw_dft energy=-15497.436246218684 free_energy=-15497.436246218684 stress="0.007548173754554692 -0.0013102109168896176 -0.0032640503220340506 -0.0013102109168896176 0.019028816575008635 0.009316545321428837 -0.0032640503220340506 0.009316545321428837 -0.02335884788828925" pbc="T T T"
Sr       0.00003626       0.00009419      10.75260867       0.01050887       0.00863942       0.47648969
Sr       3.15266178       1.57636577      14.64522241       1.19717479      -0.75539525       4.46853976
Ti       1.97047258       1.97057465      12.38212169      -1.47143103       0.55747944      -3.53666476
Ti       1.18201068       3.54679066      16.28444791      -0.02247813      -0.08904862      -0.22452775
O        0.00000906       1.97050529      12.45001441      -0.16145705      -0.13818754      -0.89258340
O        3.15294790       3.54685845      16.39256827      -0.01684895      -0.00159151      -0.08161556
O        1.97049386       3.94093294      12.44909065       1.12322678       1.06138584      -2.05571525
O        1.18238152       1.57638429      16.37955485      -0.14070953       0.01393846      -0.20009353
O        1.97043435       1.97038588      10.49176941      -0.10061138       0.14683390       0.38209601
O        1.18235157       3.54680682      14.44792112      -0.41737412      -0.80405389       1.66407479
