10
Lattice="3.940949890606662 0.0 0.0 0.0 3.940949890606662 0.0 0.0 0.0 26.940967945119528" Properties=species:S:1:pos:R:3:forces:R:3 tau=tau93 tau_p=9 tau_q=3 stage=B constraint=xy_fixed_z_free force_label=raw_dft energy=-15498.578115342925 free_energy=-15498.578115342925 stress="0.007482984563875531 -0.0012633848785144456 -0.0032548687458820564 -0.0012633848785144456 0.014746529457718394 0.01620731822350072 -0.0032548687458820564 0.01620731822350072 -0.016875736967365922" pbc="T T T"
Sr       0.00003626       0.00009419      10.75260867       0.00329307       0.00577444       0.28897014
Sr       3.54675677       1.18227078      14.64522241       0.53041987      -0.90699983       3.06617885
Ti       1.97047258       1.97057465      12.38212169      -0.75425497       0.62048175      -1.57209357
Ti       1.57610567       3.15269568      16.28444791       0.01557471      -0.16999928       0.03823025
O        0.00000906       1.97050529      12.45001441      -0.31611405      -0.04401857      -0.78162025
O        3.54704288       3.15276346      16.39256827       0.00308712      -0.04866713      -0.06886160
O        1.97049386       3.94093294      12.44909065       0.60621907       1.93995596      -2.07061325
O        1.57647651       1.18228930      16.37955485      -0.04871366       0.01115422      -0.14788548
O        1.97043435       1.97038588      10.49176941      -0.08881953       0.28433239       0.25454538
O        1.57644656       3.15271183      14.44792112       0.04930836      -1.69201368       0.99314927
10
Lattice="3.940949890606662 0.0 0.0 0.0 3.940949890606662 0.0 0.0 0.0 26.940967945119528" Properties=species:S:1:pos:R:3:forces:R:3 tau=tau93 tau_p=9 tau_q=3 stage=B constraint=xy_fixed_z_free force_label=raw_dft energy=-15498.891382998252 free_energy=-15498.891382998252 stress="0.00612962023907154 -0.0010705717793225607 -0.003183252451896499 -0.0010705717793225607 0.01236023781581502 0.013901824451734898 -0.003183252451896499 0.013901824451734898 -0.01709609479501379" pbc="T T T"
Sr       0.00003612       0.00009431      10.75855622       0.00351418       0.00493575       0.26715767
Sr       3.54675692       1.18227095      14.70832993       0.47542269      -0.67609600       2.18207134
Ti       1.97047269       1.97057450      12.34976558      -0.62361696       0.56291861      -0.96960311
Ti       1.57610576       3.15269575      16.28523476       0.01531220      -0.15178687       0.18670940
O        0.00000902       1.97050521      12.43392738      -0.35429904      -0.15600323      -0.43435368
O        3.54704290       3.15276354      16.39115104       0.00164499      -0.04319633       0.06238730
O        1.97049401       3.94093312      12.40647386       0.53105210       1.64320154      -1.64601459
O        1.57647643       1.18228938      16.37651107      -0.04544990       0.01446991       0.00285212
O        1.97043419       1.97038596      10.49700837      -0.08570978       0.26262636      -0.22676641
O        1.57644658       3.15271182      14.46836177       0.08212926      -1.46106974       0.57556021
10
Lattice="3.940949890606662 0.0 0.0 0.0 3.940949890606662 0.0 0.0 0.0 26.940967945119528" Properties=species:S:1:pos:R:3:forces:R:3 tau=tau93 tau_p=9 tau_q=3 stage=B constraint=xy_fixed_z_free force_label=raw_dft energy=-15499.125673965735 free_energy=-15499.125673965735 stress="0.00436951209073419 -0.0009181576151994518 -0.0031171451036021386 -0.0009181576151994518 0.009483650007395136 0.011769862469241771 -0.0031171451036021386 0.011769862469241771 -0.01686196460313793" pbc="T T T"
Sr       0.00003612       0.00009431      10.76691242       0.00441947       0.00281562       0.12246010
Sr       3.54675692       1.18227095      14.77774788       0.42253432      -0.48894180       1.28932802
Ti       1.97047269       1.97057450      12.31857322      -0.51293637       0.51600549      -0.56821920
Ti       1.57610576       3.15269575      16.29080408       0.01567139      -0.13325411       0.20228591
O        0.00000902       1.97050521      12.41982625      -0.37864276      -0.23877012      -0.13975617
O        3.54704290       3.15276354      16.39287705       0.00027691      -0.03771063       0.23570742
O        1.97049401       3.94093312      12.35450991       0.45250259       1.36497373      -1.15485958
O        1.57647643       1.18228938      16.37635075      -0.04151663       0.01609408       0.19979554
O        1.97043419       1.97038596      10.49074166      -0.07963221       0.23884700      -0.51244426
O        1.57644658       3.15271182      14.48697675       0.11732304      -1.24005925       0.32570246
10
Lattice="3.940949890606662 0.0 0.0 0.0 3.940949890606662 0.0 0.0 0.0 26.940967945119528" Properties=species:S:1:pos:R:3:forces:R:3 tau=tau93 tau_p=9 tau_q=3 stage=B constraint=xy_fixed_z_free force_label=raw_dft energy=-15499.312225281361 free_energy=-15499.312225281361 stress="0.0012799117155880358 -0.000760234505385146 -0.0029931938255502123 -0.000760234505385146 0.004793700908956338 0.009083333287168175 -0.0029931938255502123 0.009083333287168175 -0.01627342557179508" pbc="T T T"
Sr       0.00003612       0.00009431      10.77758335       0.00619379      -0.00160797      -0.23640471
Sr       3.54675692       1.18227095      14.88187480       0.35183721      -0.29376833       0.09754765
Ti       1.97047269       1.97057450      12.27156149      -0.38613393       0.45976647      -0.25202416
Ti       1.57610576       3.15269575      16.30304493       0.01694948      -0.10671981       0.21810822
O        0.00000902       1.97050521      12.40385663      -0.38871763      -0.30666010       0.14016703
O        3.54704290       3.15276354      16.40456808      -0.00199183      -0.03054162       0.48873946
O        1.97049401       3.94093312      12.26843073       0.34274811       1.01407445      -0.40429312
O        1.57647643       1.18228938      16.38518731      -0.03539612       0.01687569       0.49222176
O        1.97043419       1.97038596      10.46460356      -0.06685640       0.20223063      -0.62931169
O        1.57644658       3.15271182      14.51460909       0.16136732      -0.95364942       0.08525007
10
Lattice="3.940949890606662 0.0 0.0 0.0 3.940949890606662 0.0 0.0 0.0 26.940967945119528" Properties=species:S:1:pos:R:3:forces:R:3 tau=tau93 tau_p=9 tau_q=3 stage=B constraint=xy_fixed_z_free force_label=raw_dft energy=-15499.359309547035 free_energy=-15499.359309547035 stress="0.00046642406852132143 -0.0007078995213187773 -0.002937186211023046 -0.0007078995213187773 0.0032603776915732527 0.008051324127683992 -0.002937186211023046 0.008051324127683992 -0.015076148041574998" pbc="T T T"
Sr       0.00003612       0.00009431      10.77497832       0.00678848      -0.00350493      -0.42302695
Sr       3.54675692       1.18227095      14.92515120       0.32276292      -0.23209528      -0.29572803
Ti       1.97047269       1.97057450      12.24561113      -0.34074342       0.43946144      -0.21115365
Ti       1.57610576       3.15269575      16.31309551       0.01772004      -0.09690976       0.26543401
O        0.00000902       1.97050521      12.40064766      -0.38758892      -0.32116318       0.15632461
O        3.54704290       3.15276354      16.42167067      -0.00309612      -0.02769181       0.52809482
O        1.97049401       3.94093312      12.22490931       0.29622502       0.87809729      -0.09228332
O        1.57647643       1.18228938      16.40129400      -0.03236453       0.01663812       0.54714181
O        1.97043419       1.97038596      10.43972359      -0.05932461       0.18414087      -0.50463736
O        1.57644658       3.15271182      14.52823858       0.17962112      -0.83697275       0.02983431
10
Lattice="3.940949890606662 0.0 0.0 0.0 3.940949890606662 0.0 0.0 0.0 26.940967945119528" Properties=species:S:1:pos:R:3:forces:R:3 tau=tau93 tau_p=9 tau_q=3 stage=B constraint=xy_fixed_z_free force_label=raw_dft energy=-15499.412008745712 free_energy=-15499.412008745712 stress="0.000886022098667471 -0.0006583190100980068 -0.0028811785964958795 -0.0006583190100980068 0.0028012988839735274 0.007073486267496576 -0.0028811785964958795 0.007073486267496576 -0.012553969072622103" pbc="T T T"
Sr       0.00003612       0.00009431      10.75845128       0.00698440      -0.00505607      -0.56144254
Sr       3.54675692       1.18227095      14.96383294       0.29381050      -0.18082337      -0.52034371
Ti       1.97047269       1.97057450      12.20955865      -0.29842820       0.42014371      -0.13193950
Ti       1.57610576       3.15269575      16.33211581       0.01908607      -0.08987908       0.30801379
O        0.00000902       1.97050521      12.40059556      -0.38457713      -0.32859521       0.04367816
O        3.54704290       3.15276354      16.45553702      -0.00426289      -0.02476564       0.45697373
O        1.97049401       3.94093312      12.17554376       0.24944714       0.74852321       0.15554814
O        1.57647643       1.18228938      16.43467954      -0.02881127       0.01571278       0.48747730
O        1.97043419       1.97038596      10.40026646      -0.05025015       0.16319203      -0.29742958
O        1.57644658       3.15271182      14.54473894       0.19700127      -0.71845210       0.05946422
10
Lattice="3.940949890606662 0.0 0.0 0.0 3.940949890606662 0.0 0.0 0.0 26.940967945119528" Properties=species:S:1:pos:R:3:forces:R:3 tau=tau93 tau_p=9 tau_q=3 stage=B constraint=xy_fixed_z_free force_label=raw_dft energy=-15499.471427931692 free_energy=-15499.471427931692 stress="0.0031492806201341194 -0.0006013932379556408 -0.00282976177004471 -0.0006013932379556408 0.003960013794355235 0.006206745478748294 -0.00282976177004471 0.006206745478748294 -0.008481021891597336" pbc="T T T"
Sr       0.00003612       0.00009431      10.72135732       0.00652417      -0.00587574      -0.59281617
Sr       3.54675692       1.18227095      14.99265698       0.26807299      -0.14230645      -0.50606895
Ti       1.97047269       1.97057450      12.16383514      -0.26111481       0.40153561      -0.00724948
Ti       1.57610576       3.15269575      16.36380435       0.02057345      -0.08461655       0.34193564
O        0.00000902       1.97050521      12.40091811      -0.37820002      -0.32858904      -0.19170068
O        3.54704290       3.15276354      16.50865797      -0.00530624      -0.02196108       0.25538768
O        1.97049401       3.94093312      12.12337837       0.20572322       0.63235100       0.28651139
O        1.57647643       1.18228938      16.48821738      -0.02515156       0.01416498       0.28882744
O        1.97043419       1.97038596      10.34596436      -0.04067999       0.14049947      -0.03863442
O        1.57644658       3.15271182      14.56652998       0.20955853      -0.60520246       0.16380781
10
Lattice="3.940949890606662 0.0 0.0 0.0 3.940949890606662 0.0 0.0 0.0 26.940967945119528" Properties=species:S:1:pos:R:3:forces:R:3 tau=tau93 tau_p=9 tau_q=3 stage=B constraint=xy_fixed_z_free force_label=raw_dft energy=-15499.517348910706 free_energy=-15499.517348910706 stress="0.006652051922120028 -0.0005426311505828759 -0.002804053356819126 -0.0005426311505828759 0.006486783551384126 0.005694413529467 -0.002804053356819126 0.005694413529467 -0.004159253996853516" pbc="T T T"
Sr       0.00003612       0.00009431      10.67022124       0.00550293      -0.00533015      -0.46341049
Sr       3.54675692       1.18227095      15.00078334       0.25404145      -0.12556368      -0.26924901
Ti       1.97047269       1.97057450      12.12478204      -0.24064369       0.38952110       0.08438103
Ti       1.57610576       3.15269575      16.40235863       0.02203358      -0.08308186       0.32059265
O        0.00000902       1.97050521      12.39565168      -0.36809533      -0.32109813      -0.41769165
O        3.54704290       3.15276354      16.56375157      -0.00564743      -0.01975867       0.02203153
O        1.97049401       3.94093312      12.08689702       0.17734338       0.55857499       0.25220131
O        1.57647643       1.18228938      16.54475320      -0.02248455       0.01265317       0.04820818
O        1.97043419       1.97038596      10.29552231      -0.03394370       0.12331551       0.15648788
O        1.57644658       3.15271182      14.59059894       0.21189361      -0.52923202       0.26644831
10
Lattice="3.940949890606662 0.0 0.0 0.0 3.940949890606662 0.0 0.0 0.0 26.940967945119528" Properties=species:S:1:pos:R:3:forces:R:3 tau=tau93 tau_p=9 tau_q=3 stage=B constraint=xy_fixed_z_free force_label=raw_dft energy=-15499.543636740202 free_energy=-15499.543636740202 stress="0.009380816354492798 -0.0004902961665165072 -0.0028068078296647238 -0.0004902961665165072 0.008819822051605933 0.00554291752295909 -0.0028068078296647238 0.00554291752295909 -0.0014846608637775133" pbc="T T T"
Sr       0.00003612       0.00009431      10.62619407       0.00439247      -0.00393045      -0.25832156
Sr       3.54675692       1.18227095      14.99434801       0.25167115      -0.12577245      -0.01527929
Ti       1.97047269       1.97057450      12.10557045      -0.23711870       0.38704050       0.09128419
Ti       1.57610576       3.15269575      16.43446185       0.02330679      -0.08544393       0.22285345
O        0.00000902       1.97050521      12.38194960      -0.35617338      -0.31057641      -0.49266682
O        3.54704290       3.15276354      16.59814729      -0.00550293      -0.01813553      -0.09848765
O        1.97049401       3.94093312      12.07415408       0.16588141       0.52851597       0.15064196
O        1.57647643       1.18228938      16.58084699      -0.02112290       0.01146661      -0.08312659
O        1.97043419       1.97038596      10.26824263      -0.03138983       0.11453365       0.20036067
O        1.57644658       3.15271182      14.61140499       0.20605566      -0.49769795       0.28274190
10
Lattice="3.940949890606662 0.0 0.0 0.0 3.940949890606662 0.0 0.0 0.0 26.940967945119528" Properties=species:S:1:pos:R:3:forces:R:3 tau=tau93 tau_p=9 tau_q=3 stage=B constraint=xy_fixed_z_free force_label=raw_dft energy=-15499.561546728833 free_energy=-15499.561546728833 stress="0.01108583504591818 -0.00043520670960454016 -0.002809562302510322 -0.00043520670960454016 0.01060012966747767 0.0055071093759663115 -0.002809562302510322 0.0055071093759663115 -7.98797125223523e-05" pbc="T T T"
Sr       0.00003612       0.00009431      10.58966754       0.00317865      -0.00248934      -0.04479582
Sr       3.54675692       1.18227095      14.98663665       0.25306443      -0.13092957       0.17891947
Ti       1.97047269       1.97057450      12.09717954      -0.23894136       0.38686464       0.02795072
Ti       1.57610576       3.15269575      16.46183818       0.02409844      -0.08743782       0.09274586
O        0.00000902       1.97050521      12.35921703      -0.34138336      -0.29861743      -0.44208396
O        3.54704290       3.15276354      16.61804423      -0.00521214      -0.01653476      -0.12159133
O        1.97049401       3.94093312      12.07234487       0.16112409       0.51387071       0.06439431
O        1.57647643       1.18228938      16.60238854      -0.02034257       0.01029598      -0.11606474
O        1.97043419       1.97038596      10.25569910      -0.03097357       0.10894330       0.13928669
O        1.57644658       3.15271182      14.63230428       0.19538713      -0.48396569       0.22123906
10
Lattice="3.940949890606662 0.0 0.0 0.0 3.940949890606662 0.0 0.0 0.0 26.940967945119528" Properties=species:S:1:pos:R:3:forces:R:3 tau=tau93 tau_p=9 tau_q=3 stage=B constraint=xy_fixed_z_free force_label=raw_dft energy=-15499.573514159401 free_energy=-15499.573514159401 stress="0.011615611989888265 -0.0003819535679229719 -0.0027792631012087403 -0.0003819535679229719 0.011443916515845965 0.005418048087291964 -0.0027792631012087403 0.005418048087291964 0.00028279254548143116" pbc="T T T"
Sr       0.00003612       0.00009431      10.56417212       0.00229600      -0.00167045       0.10563892
Sr       3.54675692       1.18227095      14.98823597       0.25137727      -0.13196958       0.25058151
Ti       1.97047269       1.97057450      12.09141105      -0.23757559       0.38210835      -0.04819199
Ti       1.57610576       3.15269575      16.48312467       0.02376753      -0.08716811      -0.01432644
O        0.00000902       1.97050521      12.33118376      -0.32442874      -0.28684770      -0.32108450
O        3.54704290       3.15276354      16.62841195      -0.00488458      -0.01474888      -0.07893132
O        1.97049401       3.94093312      12.07166705       0.15734766       0.49882281       0.03680920
O        1.57647643       1.18228938      16.61397786      -0.01953653       0.00937193      -0.07896758
O        1.97043419       1.97038596      10.25030927      -0.03117025       0.10385380       0.02891848
O        1.57644658       3.15271182      14.65282626       0.18280698      -0.47175218       0.11955373
10
Lattice="3.940949890606662 0.0 0.0 0.0 3.940949890606662 0.0 0.0 0.0 26.940967945119528" Properties=species:S:1:pos:R:3:forces:R:3 tau=tau93 tau_p=9 tau_q=3 stage=B constraint=xy_fixed_z_free force_label=raw_dft energy=-15499.582706164872 free_energy=-15499.582706164872 stress="0.011290584194107656 -0.0003351275295477999 -0.002698465231071189 -0.0003351275295477999 0.011465034140995553 0.005209626308641689 -0.002698465231071189 0.005209626308641689 2.570841322558465e-05" pbc="T T T"
Sr       0.00003612       0.00009431      10.54721647       0.00173935      -0.00144033       0.17612288
Sr       3.54675692       1.18227095      15.00209284       0.24303147      -0.12640134       0.21062708
Ti       1.97047269       1.97057450      12.08207641      -0.22909969       0.36979097      -0.10301099
Ti       1.57610576       3.15269575      16.50046483       0.02288565      -0.08454764      -0.07214593
O        0.00000902       1.97050521      12.29970333      -0.30520769      -0.27444341      -0.17994560
O        3.54704290       3.15276354      16.63601483      -0.00465755      -0.01278970      -0.00997459
O        1.97049401       3.94093312      12.06729349       0.15162155       0.47656066       0.05720576
O        1.57647643       1.18228938      16.62240681      -0.01848752       0.00875512      -0.01111771
O        1.97043419       1.97038596      10.24443273      -0.03105353       0.09751834      -0.07870944
O        1.57644658       3.15271182      14.67361822       0.16922821      -0.45300292       0.01094879
10
Lattice="3.940949890606662 0.0 0.0 0.0 3.940949890606662 0.0 0.0 0.0 26.940967945119528" Properties=species:S:1:pos:R:3:forces:R:3 tau=tau93 tau_p=9 tau_q=3 stage=B constraint=xy_fixed_z_free force_label=raw_dft energy=-15499.589344654078 free_energy=-15499.589344654078 stress="0.010552385471487298 -0.0003002375401702207 -0.0025763502682496615 -0.0003002375401702207 0.010970147186403049 0.0049148977141626644 -0.0025763502682496615 0.0049148977141626644 -0.00038103541030777246" pbc="T T T"
Sr       0.00003612       0.00009431      10.53766492       0.00153289      -0.00175658       0.16117757
Sr       3.54675692       1.18227095      15.02505851       0.22883564      -0.11618532       0.09921810
Ti       1.97047269       1.97057450      12.06717538      -0.21495528       0.35098463      -0.11667229
Ti       1.57610576       3.15269575      16.51407907       0.02170062      -0.08028964      -0.07111286
O        0.00000902       1.97050521      12.26980418      -0.28617844      -0.26171568      -0.06918350
O        3.54704290       3.15276354      16.64488089      -0.00453157      -0.01091305       0.04760115
O        1.97049401       3.94093312      12.05890292       0.14423632       0.44986335       0.09613972
O        1.57647643       1.18228938      16.63176653      -0.01716109       0.00850984       0.04879722
O        1.97043419       1.97038596      10.23379377      -0.03015184       0.09018941      -0.13336903
O        1.57644658       3.15271182      14.69219379       0.15667274      -0.42868723      -0.06259633
10
Lattice="3.940949890606662 0.0 0.0 0.0 3.940949890606662 0.0 0.0 0.0 26.940967945119528" Properties=species:S:1:pos:R:3:forces:R:3 tau=tau93 tau_p=9 tau_q=3 stage=B constraint=xy_fixed_z_free force_label=raw_dft energy=-15499.593350986126 free_energy=-15499.593350986126 stress="0.009943646972610062 -0.00027728359979023443 -0.002449644517352137 -0.00027728359979023443 0.010475260231810545 0.004628432538220436 -0.002449644517352137 0.004628432538220436 -0.0004710148565973187" pbc="T T T"
Sr       0.00003612       0.00009431      10.53170167       0.00158868      -0.00227106       0.10191853
Sr       3.54675692       1.18227095      15.04792795       0.21379726      -0.10610917      -0.00561143
Ti       1.97047269       1.97057450      12.04895722      -0.20016475       0.33143679      -0.09395711
Ti       1.57610576       3.15269575      16.52515421       0.02041045      -0.07589177      -0.03877198
O        0.00000902       1.97050521      12.24622279      -0.27055539      -0.25031926      -0.01819698
O        3.54704290       3.15276354      16.65694705      -0.00439993      -0.00947066       0.06423541
O        1.97049401       3.94093312      12.04975456       0.13716758       0.42608322       0.11443852
O        1.57647643       1.18228938      16.64422145      -0.01580303       0.00841856       0.06815120
O        1.97043419       1.97038596      10.21817150      -0.02870225       0.08309060      -0.11581971
O        1.57644658       3.15271182      14.70626155       0.14666112      -0.40496752      -0.07638619
10
Lattice="3.940949890606662 0.0 0.0 0.0 3.940949890606662 0.0 0.0 0.0 26.940967945119528" Properties=species:S:1:pos:R:3:forces:R:3 tau=tau93 tau_p=9 tau_q=3 stage=B constraint=xy_fixed_z_free force_label=raw_dft energy=-15499.595518100736 free_energy=-15499.595518100736 stress="0.009703089677427806 -0.00026351123556224264 -0.002351401652525796 -0.00026351123556224264 0.01031458264915064 0.004431946808567753 -0.002351401652525796 0.004431946808567753 -0.00019648572965268266" pbc="T T T"
Sr       0.00003612       0.00009431      10.52723477       0.00168947      -0.00269323       0.04701262
Sr       3.54675692       1.18227095      15.06308067       0.20255536      -0.09956983      -0.05493933
Ti       1.97047269       1.97057450      12.03268866      -0.18951010       0.31640330      -0.05407827
Ti       1.57610576       3.15269575      16.53382244       0.01956944      -0.07327207      -0.00694635
O        0.00000902       1.97050521      12.22981276      -0.25983131      -0.24165696      -0.01093079
O        3.54704290       3.15276354      16.66934917      -0.00427754      -0.00850264       0.04570290
O        1.97049401       3.94093312      12.04449962       0.13265221       0.41153617       0.09586332
O        1.57647643       1.18228938      16.65706420      -0.01474193       0.00844299       0.05063685
O        1.97043419       1.97038596      10.20259761      -0.02743033       0.07769025      -0.06214973
O        1.57644658       3.15271182      14.71517005       0.13932448      -0.38837799      -0.05017071
10
Lattice="3.940949890606662 0.0 0.0 0.0 3.940949890606662 0.0 0.0 0.0 26.940967945119528" Properties=species:S:1:pos:R:3:forces:R:3 tau=tau93 tau_p=9 tau_q=3 stage=B constraint=xy_fixed_z_free force_label=raw_dft energy=-15499.596525738281 free_energy=-15499.596525738281 stress="0.009704007835043004 -0.00025616597464064704 -0.0022963121956138285 -0.00025616597464064704 0.010434861296741768 0.004352067096045401 -0.0022963121956138285 0.004352067096045401 0.00015333232173830844" pbc="T T T"
Sr       0.00003612       0.00009431      10.52493139       0.00175709      -0.00294160       0.01771953
Sr       3.54675692       1.18227095      15.06841125       0.19684829      -0.09729260      -0.05259500
Ti       1.97047269       1.97057450      12.02286695      -0.18454196       0.30804901      -0.01856054
Ti       1.57610576       3.15269575      16.53895372       0.01911332      -0.07253108       0.00824604
O        0.00000902       1.97050521      12.21999970      -0.25409390      -0.23649058      -0.01566805
O        3.54704290       3.15276354      16.67761552      -0.00418164      -0.00797788       0.01764394
O        1.97049401       3.94093312      12.04513667       0.13152581       0.40784355       0.05469945
O        1.57647643       1.18228938      16.66578258      -0.01414595       0.00849647       0.02181761
O        1.97043419       1.97038596      10.19255164      -0.02683383       0.07472397      -0.01455913
O        1.57644658       3.15271182      14.71907054       0.13455226      -0.38187952      -0.01874437
10
Lattice="3.940949890606662 0.0 0.0 0.0 3.940949890606662 0.0 0.0 0.0 26.940967945119528" Properties=species:S:1:pos:R:3:forces:R:3 tau=tau93 tau_p=9 tau_q=3 stage=B constraint=xy_fixed_z_free force_label=raw_dft energy=-15499.596931051845 free_energy=-15499.596931051845 stress="0.009743488612496581 -0.00025616597464064704 -0.0022834579890010365 -0.00025616597464064704 0.010614820189320862 0.00437043024834939 -0.0022834579890010365 0.00437043024834939 0.0003213551653198081" pbc="T T T"
Sr       0.00003612       0.00009431      10.52607501       0.00183371      -0.00305190       0.00873789
Sr       3.54675692       1.18227095      15.06620180       0.19623431      -0.09823157      -0.02886398
Ti       1.97047269       1.97057450      12.02102462      -0.18467386       0.30643950      -0.00059058
Ti       1.57610576       3.15269575      16.53946197       0.01897114      -0.07308926       0.00852449
O        0.00000902       1.97050521      12.21677848      -0.25297470      -0.23508110      -0.01516565
O        3.54704290       3.15276354      16.67923666      -0.00411891      -0.00786449       0.00076413
O        1.97049401       3.94093312      12.04996944       0.13315666       0.41261526       0.01759946
O        1.57647643       1.18228938      16.66770157      -0.01402357       0.00853915       0.00355969
O        1.97043419       1.97038596      10.19045424      -0.02694619       0.07419330       0.00679003
O        1.57644658       3.15271182      14.71841616       0.13254165      -0.38446888      -0.00135523
10
Lattice="3.940949890606662 0.0 0.0 0.0 3.940949890606662 0.0 0.0 0.0 26.940967945119528" Properties=species:S:1:pos:R:3:forces:R:3 tau=tau93 tau_p=9 tau_q=3 stage=B constraint=xy_fixed_z_free force_label=raw_dft energy=-15499.597080034171 free_energy=-15499.597080034171 stress="0.009730634405883789 -0.00025983860510144484 -0.0022917214075378316 -0.00025983860510144484 0.0107185719998384 0.004428274178106956 -0.0022917214075378316 0.004428274178106956 0.0003020738554006196" pbc="T T T"
Sr       0.00003612       0.00009431      10.52924537       0.00191059      -0.00308558       0.00682962
Sr       3.54675692       1.18227095      15.06153621       0.19798780      -0.10026428      -0.00748551
Ti       1.97047269       1.97057450      12.02351876      -0.18699196       0.30819145       0.00305164
Ti       1.57610576       3.15269575      16.53730575       0.01894749      -0.07404391       0.00365842
O        0.00000902       1.97050521      12.21734062      -0.25418774      -0.23575550      -0.00896184
O        3.54704290       3.15276354      16.67686467      -0.00408780      -0.00795525      -0.00371087
O        1.97049401       3.94093312      12.05537253       0.13568380       0.42007815      -0.00387414
O        1.57647643       1.18228938      16.66546472      -0.01414981       0.00858414      -0.00206562
O        1.97043419       1.97038596      10.19295958      -0.02738096       0.07495331       0.00910505
O        1.57644658       3.15271182      14.71571174       0.13226835      -0.39070252       0.00345376
