10
Lattice="3.940949890606662 0.0 0.0 0.0 3.940949890606662 0.0 0.0 0.0 26.940967945119528" Properties=species:S:1:pos:R:3:forces:R:3 tau=tau58 tau_p=5 tau_q=8 stage=A constraint=rigid_scf force_label=raw_dft energy=-15497.086584153776 free_energy=-15497.086584153776 stress="0.021637302359790278 9.181576151994517e-07 -9.181576151994517e-07 9.181576151994517e-07 0.006056167629855583 -0.0016884918543517914 -9.181576151994517e-07 -0.0016884918543517914 -0.02704616887093025" pbc="T T T"
Sr       0.00003626       0.00009419      10.75260867      -0.00010079       0.01445937       0.50318109
Sr       1.97037682       3.15274573      14.64522241      -0.00039672       1.27501854       4.92922256
Ti       1.97047258       1.97057465      12.38212169       0.00009667      -1.57782996      -4.01515502
Ti       3.94067560       1.18222073      16.28444791       0.00044866      -0.06558730      -0.23699272
O        0.00000906       1.97050529      12.45001441      -0.00001594       1.26016991      -2.33684018
O        1.97066293       1.18228851      16.39256827      -0.00051062      -0.15772921      -0.26262893
O        1.97049386       3.94093294      12.44909065       0.00003600       0.05112150      -0.97566500
O        0.00009655       3.15276425      16.37955485       0.00044866      -0.01972653      -0.03963356
O        1.97043435       1.97038588      10.49176941       0.00014064      -0.08438515       0.40925046
O        0.00006660       1.18223689      14.44792112      -0.00014578      -0.69551143       2.02526156
