10
Lattice="3.940949890606662 0.0 0.0 0.0 3.940949890606662 0.0 0.0 0.0 26.940967945119528" Properties=species:S:1:pos:R:3:forces:R:3 tau=tau36 tau_p=3 tau_q=6 stage=B constraint=xy_fixed_z_free force_label=raw_dft energy=-15499.167193095236 free_energy=-15499.167193095236 stress="0.009721452829731794 -9.640654959594242e-05 0.0024019003213617655 -9.640654959594242e-05 0.007892482860254487 -0.0013258195963480083 0.0024019003213617655 -0.0013258195963480083 -0.0022237777440130718" pbc="T T T"
Sr       0.00003626       0.00009419      10.47970065      -0.00612103       0.00406569      -0.63471975
Sr       1.18218684       2.36455575      15.20915855      -0.24470860       0.09997092       0.20299322
Ti       1.97047258       1.97057465      11.84002473       0.17465529      -0.12070455       0.03635720
Ti       3.15248562       0.39403075      16.65036038      -0.00791566       0.01102952       0.23664896
O        0.00000906       1.97050529      12.07427873       0.26312490       0.11109685      -0.17954193
O        1.18247295       0.39409854      16.82366680       0.00497020      -0.00557081      -0.28044359
O        1.97049386       3.94093294      11.90162217      -0.13182766      -0.12884389       0.48170286
O        3.15285647       2.36457427      16.83030415       0.01936015      -0.00333575      -0.31678793
O        1.97043435       1.97038588      10.04223314       0.02341092      -0.02113267       0.00919504
O        3.15282651       0.39404691      14.82396893      -0.09494853       0.05342495       0.44459619
10
Lattice="3.940949890606662 0.0 0.0 0.0 3.940949890606662 0.0 0.0 0.0 26.940967945119528" Properties=species:S:1:pos:R:3:forces:R:3 tau=tau36 tau_p=3 tau_q=6 stage=B constraint=xy_fixed_z_free force_label=raw_dft energy=-15499.188088989022 free_energy=-15499.188088989022 stress="0.00986284910247251 -9.181576151994517e-05 0.002376191908136181 -9.181576151994517e-05 0.008131203840206346 -0.0013377556453456011 0.002376191908136181 -0.0013377556453456011 -0.002636030513237626" pbc="T T T"
Sr       0.00003612       0.00009431      10.46663725      -0.00525071       0.00349439      -0.49037159
Sr       1.18218697       2.36455593      15.21333676      -0.24250079       0.10085358       0.17412179
Ti       1.97047269       1.97057450      11.84077322       0.17406754      -0.11953521       0.09167423
Ti       3.15248573       0.39403080      16.65523129      -0.00782541       0.01140387       0.17293008
O        0.00000902       1.97050521      12.07058343       0.25756283       0.10812697      -0.20091526
O        1.18247295       0.39409860      16.81789504       0.00480411      -0.00576287      -0.19086353
O        1.97049401       3.94093312      11.91153667      -0.13184386      -0.12922185       0.37606163
O        3.15285639       2.36457436      16.82378419       0.01938406      -0.00335323      -0.22472907
O        1.97043419       1.97038596      10.04242256       0.02332916      -0.02063902      -0.05240577
O        3.15282654       0.39404688      14.83311955      -0.09172693       0.05463311       0.34449800
10
Lattice="3.940949890606662 0.0 0.0 0.0 3.940949890606662 0.0 0.0 0.0 26.940967945119528" Properties=species:S:1:pos:R:3:forces:R:3 tau=tau36 tau_p=3 tau_q=6 stage=B constraint=xy_fixed_z_free force_label=raw_dft energy=-15499.205706047107 free_energy=-15499.205706047107 stress="0.010036380891745206 -8.722497344394792e-05 0.002352319810140995 -8.722497344394792e-05 0.00850489398959252 -0.0013561187976495902 0.002352319810140995 -0.0013561187976495902 -0.0027774267859783414" pbc="T T T"
Sr       0.00003612       0.00009431      10.45226726      -0.00426726       0.00282641      -0.35949936
Sr       1.18218697       2.36455593      15.21840829      -0.24041152       0.10214890       0.14424146
Ti       1.97047269       1.97057450      11.84334576       0.17406291      -0.11862222       0.04823672
Ti       3.15248573       0.39403080      16.66031662      -0.00777733       0.01185793       0.12708680
O        0.00000902       1.97050521      12.06480719       0.25135362       0.10478685      -0.20167502
O        1.18247295       0.39409860      16.81225569       0.00467658      -0.00599530      -0.09747695
O        1.97049401       3.94093312      11.92254989      -0.13213131      -0.12998495       0.27674455
O        3.15285639       2.36457436      16.81716280       0.01948202      -0.00335503      -0.12813093
O        1.97043419       1.97038596      10.04099346       0.02331965      -0.02001398      -0.04364036
O        3.15282654       0.39404688      14.84321301      -0.08830737       0.05635164       0.23411308
10
Lattice="3.940949890606662 0.0 0.0 0.0 3.940949890606662 0.0 0.0 0.0 26.940967945119528" Properties=species:S:1:pos:R:3:forces:R:3 tau=tau36 tau_p=3 tau_q=6 stage=B constraint=xy_fixed_z_free force_label=raw_dft energy=-15499.221811784932 free_energy=-15499.221811784932 stress="0.01014655980556914 -8.079787013755175e-05 0.002309166402226621 -8.079787013755175e-05 0.009014471466028217 -0.0013836635261055736 0.002309166402226621 -0.0013836635261055736 -0.003022574869236595" pbc="T T T"
Sr       0.00003612       0.00009431      10.43071228      -0.00291974       0.00193861      -0.16818640
Sr       1.18218697       2.36455593      15.22667996      -0.23636383       0.10394224       0.09300966
Ti       1.97047269       1.97057450      11.84637001       0.17372147      -0.11695100      -0.00399267
Ti       3.15248573       0.39403080      16.66796616      -0.00754696       0.01249376       0.06214896
O        0.00000902       1.97050521      12.05397006       0.24149241       0.09961636      -0.19413706
O        1.18247295       0.39409860      16.80551311       0.00444158      -0.00635654       0.03130215
O        1.97049401       3.94093312      11.93910914      -0.13282268      -0.13121162       0.13524234
O        3.15285639       2.36457436      16.80871358       0.01945965      -0.00337920       0.00681805
O        1.97043419       1.97038596      10.03868926       0.02340244      -0.01908427      -0.04467240
O        3.15282654       0.39404688      14.85759642      -0.08286434       0.05899165       0.08246736
10
Lattice="3.940949890606662 0.0 0.0 0.0 3.940949890606662 0.0 0.0 0.0 26.940967945119528" Properties=species:S:1:pos:R:3:forces:R:3 tau=tau36 tau_p=3 tau_q=6 stage=B constraint=xy_fixed_z_free force_label=raw_dft energy=-15499.227846181418 free_energy=-15499.227846181418 stress="0.010149314278414739 -7.528892444635504e-05 0.0022595858910058504 -7.528892444635504e-05 0.009534148676231107 -0.0014084537817159587 0.0022595858910058504 -0.0014084537817159587 -0.0031520350929797173" pbc="T T T"
Sr       0.00003612       0.00009431      10.41061537      -0.00175761       0.00121356      -0.00564691
Sr       1.18218697       2.36455593      15.23530988      -0.23132549       0.10545020       0.04288060
Ti       1.97047269       1.97057450      11.84809700       0.17319311      -0.11511549      -0.05537771
Ti       3.15248573       0.39403080      16.67521816      -0.00726285       0.01292365       0.01239092
O        0.00000902       1.97050521      12.04024880       0.23136509       0.09451401      -0.17210142
O        1.18247295       0.39409860      16.80205167       0.00420967      -0.00664245       0.13184488
O        1.97049401       3.94093312      11.95476100      -0.13390794      -0.13254422       0.01152497
O        3.15285639       2.36457436      16.80329291       0.01925705      -0.00336609       0.11484604
O        1.97043419       1.97038596      10.03572292       0.02357265      -0.01813605      -0.04840744
O        3.15282654       0.39404688      14.87000225      -0.07734367       0.06170288      -0.03195367
10
Lattice="3.940949890606662 0.0 0.0 0.0 3.940949890606662 0.0 0.0 0.0 26.940967945119528" Properties=species:S:1:pos:R:3:forces:R:3 tau=tau36 tau_p=3 tau_q=6 stage=B constraint=xy_fixed_z_free force_label=raw_dft energy=-15499.229534511729 free_energy=-15499.229534511729 stress="0.010117178761882758 -7.437076683115559e-05 0.0022375501082410637 -7.437076683115559e-05 0.009725125460192592 -0.001414880885022355 0.0022375501082410637 -0.001414880885022355 -0.003085927744685357" pbc="T T T"
Sr       0.00003612       0.00009431      10.40542255      -0.00150872       0.00106547       0.02535545
Sr       1.18218697       2.36455593      15.23838444      -0.22872457       0.10566643       0.03173667
Ti       1.97047269       1.97057450      11.84718967       0.17277788      -0.11428554      -0.06858906
Ti       3.15248573       0.39403080      16.67735375      -0.00706179       0.01299436       0.00932359
O        0.00000902       1.97050521      12.03312191       0.22756243       0.09273223      -0.15280632
O        1.18247295       0.39409860      16.80403176       0.00412456      -0.00668513       0.13762241
O        1.97049401       3.94093312      11.95895236      -0.13454840      -0.13306822      -0.02060791
O        3.15285639       2.36457436      16.80441847       0.01900714      -0.00335632       0.12409198
O        1.97043419       1.97038596      10.03398121       0.02368937      -0.01781543      -0.05116392
O        3.15282654       0.39404688      14.87246383      -0.07531790       0.06275240      -0.03496315
10
Lattice="3.940949890606662 0.0 0.0 0.0 3.940949890606662 0.0 0.0 0.0 26.940967945119528" Properties=species:S:1:pos:R:3:forces:R:3 tau=tau36 tau_p=3 tau_q=6 stage=B constraint=xy_fixed_z_free force_label=raw_dft energy=-15499.231477132424 free_energy=-15499.231477132424 stress="0.010055662201664395 -7.345260921595614e-05 0.0022127598526306786 -7.345260921595614e-05 0.009886721200467696 -0.0014185535154831528 0.0022127598526306786 -0.0014185535154831528 -0.0029996209288566085" pbc="T T T"
Sr       0.00003612       0.00009431      10.40149089      -0.00135986       0.00097933       0.04086486
Sr       1.18218697       2.36455593      15.24133072      -0.22583645       0.10565871       0.02523255
Ti       1.97047269       1.97057450      11.84540432       0.17219706      -0.11336431      -0.07666695
Ti       3.15248573       0.39403080      16.67930308      -0.00680700       0.01301261       0.01514560
O        0.00000902       1.97050521      12.02528234       0.22378676       0.09102759      -0.12948435
O        1.18247295       0.39409860      16.80746114       0.00404563      -0.00669387       0.12940491
O        1.97049401       3.94093312      11.96206139      -0.13516264      -0.13348448      -0.04531852
O        3.15285639       2.36457436      16.80697513       0.01868986      -0.00334449       0.11951182
O        1.97043419       1.97038596      10.03186303       0.02379967      -0.01750458      -0.05432870
O        3.15282654       0.39404688      14.87414792      -0.07335306       0.06371348      -0.02436120
10
Lattice="3.940949890606662 0.0 0.0 0.0 3.940949890606662 0.0 0.0 0.0 26.940967945119528" Properties=species:S:1:pos:R:3:forces:R:3 tau=tau36 tau_p=3 tau_q=6 stage=B constraint=xy_fixed_z_free force_label=raw_dft energy=-15499.234252421462 free_energy=-15499.234252421462 stress="0.009961091967298852 -7.345260921595614e-05 0.002175115390407501 -7.345260921595614e-05 0.01009973376719397 -0.0014222261459439507 0.002175115390407501 -0.0014222261459439507 -0.0028517975528094966" pbc="T T T"
Sr       0.00003612       0.00009431      10.39690911      -0.00123567       0.00091480       0.04849486
Sr       1.18218697       2.36455593      15.24550935      -0.22143240       0.10540392       0.02009394
Ti       1.97047269       1.97057450      11.84192985       0.17114368      -0.11193143      -0.08268514
Ti       3.15248573       0.39403080      16.68221734      -0.00644936       0.01296582       0.02814330
O        0.00000902       1.97050521      12.01352299       0.21841907       0.08864958      -0.09355267
O        1.18247295       0.39409860      16.81351676       0.00393456      -0.00666533       0.10833857
O        1.97049401       3.94093312      11.96533383      -0.13587277      -0.13386654      -0.07391073
O        3.15285639       2.36457436      16.81179129       0.01818464      -0.00332521       0.10361443
O        1.97043419       1.97038596      10.02833521       0.02393466      -0.01706544      -0.05816838
O        3.15282654       0.39404688      14.87625423      -0.07062640       0.06491958      -0.00036844
10
Lattice="3.940949890606662 0.0 0.0 0.0 3.940949890606662 0.0 0.0 0.0 26.940967945119528" Properties=species:S:1:pos:R:3:forces:R:3 tau=tau36 tau_p=3 tau_q=6 stage=B constraint=xy_fixed_z_free force_label=raw_dft energy=-15499.237725138273 free_energy=-15499.237725138273 stress="0.009805005172714945 -7.161629398555724e-05 0.002118189618265135 -7.161629398555724e-05 0.010369672106062608 -0.0014222261459439507 0.002118189618265135 -0.0014222261459439507 -0.0026351123556224263" pbc="T T T"
Sr       0.00003612       0.00009431      10.39109470      -0.00110480       0.00087572       0.04431322
Sr       1.18218697       2.36455593      15.25172634      -0.21471334       0.10469275       0.01701556
Ti       1.97047269       1.97057450      11.83570089       0.16916085      -0.10961307      -0.08509297
Ti       3.15248573       0.39403080      16.68700312      -0.00598347       0.01279689       0.04976833
O        0.00000902       1.97050521      11.99588395       0.21062529       0.08521741      -0.03980453
O        1.18247295       0.39409860      16.82341734       0.00378081      -0.00658871       0.07180243
O        1.97049401       3.94093312      11.96855985      -0.13649061      -0.13402441      -0.10828304
O        3.15285639       2.36457436      16.81992491       0.01742925      -0.00328381       0.07451983
O        1.97043419       1.97038596      10.02242286       0.02406810      -0.01641007      -0.06234514
O        3.15282654       0.39404688      14.87958600      -0.06677206       0.06633678       0.03810658
10
Lattice="3.940949890606662 0.0 0.0 0.0 3.940949890606662 0.0 0.0 0.0 26.940967945119528" Properties=species:S:1:pos:R:3:forces:R:3 tau=tau36 tau_p=3 tau_q=6 stage=B constraint=xy_fixed_z_free force_label=raw_dft energy=-15499.241256359555 free_energy=-15499.241256359555 stress="0.00956352971991749 -6.886182113995888e-05 0.0020337191176667854 -6.886182113995888e-05 0.01069929068991921 -0.0014157990426375546 0.0020337191176667854 -0.0014157990426375546 -0.0023302840273762087" pbc="T T T"
Sr       0.00003612       0.00009431      10.38315435      -0.00098062       0.00087032       0.01858265
Sr       1.18218697       2.36455593      15.26135464      -0.20449526       0.10311306       0.01766785
Ti       1.97047269       1.97057450      11.82472522       0.16555719      -0.10579215      -0.07971988
Ti       3.15248573       0.39403080      16.69542087      -0.00546051       0.01230993       0.08010349
O        0.00000902       1.97050521      11.96942540       0.19924250       0.08024130       0.03900441
O        1.18247295       0.39409860      16.83921894       0.00356869      -0.00643676       0.01684510
O        1.97049401       3.94093312      11.97076689      -0.13646978      -0.13343614      -0.14947185
O        3.15285639       2.36457436      16.83323671       0.01633190      -0.00318688       0.03010556
O        1.97043419       1.97038596      10.01231416       0.02410795      -0.01544436      -0.06546157
O        3.15282654       0.39404688      14.88570279      -0.06140231       0.06776220       0.09234400
10
Lattice="3.940949890606662 0.0 0.0 0.0 3.940949890606662 0.0 0.0 0.0 26.940967945119528" Properties=species:S:1:pos:R:3:forces:R:3 tau=tau36 tau_p=3 tau_q=6 stage=B constraint=xy_fixed_z_free force_label=raw_dft energy=-15499.243434358721 free_energy=-15499.243434358721 stress="0.00936061688695841 -6.518919067916107e-05 0.001963939138911627 -6.518919067916107e-05 0.010864559060655112 -0.0014001903631791638 0.001963939138911627 -0.0014001903631791638 -0.002120025933495534" pbc="T T T"
Sr       0.00003612       0.00009431      10.37669365      -0.00095337       0.00088497      -0.01874000
Sr       1.18218697       2.36455593      15.27000943      -0.19587332       0.10108164       0.02253675
Ti       1.97047269       1.97057450      11.81362616       0.16166737      -0.10210699      -0.06689573
Ti       3.15248573       0.39403080      16.70446358      -0.00491723       0.01187464       0.09672979
O        0.00000902       1.97050521      11.94799303       0.19005723       0.07620827       0.09829533
O        1.18247295       0.39409860      16.85309722       0.00336969      -0.00630126      -0.02169214
O        1.97049401       3.94093312      11.96896768      -0.13501120      -0.13177109      -0.17157254
O        3.15285639       2.36457436      16.84533397       0.01542688      -0.00310589      -0.00079627
O        1.97043419       1.97038596      10.00217991       0.02385007      -0.01468280      -0.06274572
O        3.15282654       0.39404688      14.89295533      -0.05761636       0.06791878       0.12488079
10
Lattice="3.940949890606662 0.0 0.0 0.0 3.940949890606662 0.0 0.0 0.0 26.940967945119528" Properties=species:S:1:pos:R:3:forces:R:3 tau=tau36 tau_p=3 tau_q=6 stage=B constraint=xy_fixed_z_free force_label=raw_dft energy=-15499.246273050287 free_energy=-15499.246273050287 stress="0.009193512200992111 -6.059840260316382e-05 0.0018959954753868678 -6.059840260316382e-05 0.010915057729491081 -0.001369891161877582 0.0018959954753868678 -0.001369891161877582 -0.001945575986607638" pbc="T T T"
Sr       0.00003612       0.00009431      10.36943435      -0.00097830       0.00090631      -0.06864820
Sr       1.18218697       2.36455593      15.27989909      -0.18702539       0.09812487       0.03216476
Ti       1.97047269       1.97057450      11.79989643       0.15659124      -0.09805339      -0.04664830
Ti       3.15248573       0.39403080      16.71664202      -0.00455162       0.01132931       0.09865631
O        0.00000902       1.97050521      11.92773617       0.18115890       0.07227654       0.14440884
O        1.18247295       0.39409860      16.86781644       0.00319382      -0.00611845      -0.04596875
O        1.97049401       3.94093312      11.96191663      -0.13145202      -0.12833456      -0.17846618
O        3.15285639       2.36457436      16.85874078       0.01454370      -0.00296988      -0.01930359
O        1.97043419       1.97038596       9.98954502       0.02324586      -0.01389450      -0.05358230
O        3.15282654       0.39404688      14.90369304      -0.05472619       0.06673375       0.13738741
10
Lattice="3.940949890606662 0.0 0.0 0.0 3.940949890606662 0.0 0.0 0.0 26.940967945119528" Properties=species:S:1:pos:R:3:forces:R:3 tau=tau36 tau_p=3 tau_q=6 stage=B constraint=xy_fixed_z_free force_label=raw_dft energy=-15499.250795718342 free_energy=-15499.250795718342 stress="0.0090447706673298 -5.2334984066368754e-05 0.0018197883933253132 -5.2334984066368754e-05 0.010848032223581522 -0.0013203106506568115 0.0018197883933253132 -0.0013203106506568115 -0.0017959162953301274" pbc="T T T"
Sr       0.00003612       0.00009431      10.35879260      -0.00107472       0.00090991      -0.13178138
Sr       1.18218697       2.36455593      15.29341624      -0.17649595       0.09364549       0.04730238
Ti       1.97047269       1.97057450      11.78080636       0.14944666      -0.09313461      -0.01714463
Ti       3.15248573       0.39403080      16.73476186      -0.00439376       0.01085880       0.08659115
O        0.00000902       1.97050521      11.90545361       0.17108815       0.06777171       0.17924908
O        1.18247295       0.39409860      16.88613966       0.00297579      -0.00578910      -0.05659847
O        1.97049401       3.94093312      11.94744544      -0.12498004      -0.12236497      -0.17114548
O        3.15285639       2.36457436      16.87611252       0.01353634      -0.00279582      -0.02547372
O        1.97043419       1.97038596       9.97170665       0.02220199      -0.01297764      -0.03772580
O        3.15282654       0.39404688      14.92068502      -0.05230498       0.06387623       0.12672685
10
Lattice="3.940949890606662 0.0 0.0 0.0 3.940949890606662 0.0 0.0 0.0 26.940967945119528" Properties=species:S:1:pos:R:3:forces:R:3 tau=tau36 tau_p=3 tau_q=6 stage=B constraint=xy_fixed_z_free force_label=raw_dft energy=-15499.258618174863 free_energy=-15499.258618174863 stress="0.008918064916432274 -3.9480777453576426e-05 0.0017086913218861796 -3.9480777453576426e-05 0.010621247292627258 -0.001227576731521667 0.0017086913218861796 -0.001227576731521667 -0.001626057136518229" pbc="T T T"
Sr       0.00003612       0.00009431      10.33757556      -0.00123593       0.00083124      -0.22008257
Sr       1.18218697       2.36455593      15.31767893      -0.16076002       0.08581134       0.07245497
Ti       1.97047269       1.97057450      11.74748039       0.13751494      -0.08632273       0.03460859
Ti       3.15248573       0.39403080      16.76818569      -0.00418061       0.01047699       0.04607623
O        0.00000902       1.97050521      11.87330375       0.15626291       0.06126785       0.20033085
O        1.18247295       0.39409860      16.91607203       0.00262407      -0.00510852      -0.04767494
O        1.97049401       3.94093312      11.91646834      -0.11259169      -0.11091508      -0.14266177
O        3.15285639       2.36457436      16.90546750       0.01198160      -0.00245823      -0.01348852
O        1.97043419       1.97038596       9.93993297       0.02016928      -0.01163116      -0.00917421
O        3.15282654       0.39404688      14.95315481      -0.04978427       0.05804805       0.07961138
10
Lattice="3.940949890606662 0.0 0.0 0.0 3.940949890606662 0.0 0.0 0.0 26.940967945119528" Properties=species:S:1:pos:R:3:forces:R:3 tau=tau36 tau_p=3 tau_q=6 stage=B constraint=xy_fixed_z_free force_label=raw_dft energy=-15499.267478881733 free_energy=-15499.267478881733 stress="0.008969481742883444 -2.3872097995185745e-05 0.0015801492557582562 -2.3872097995185745e-05 0.010273265556466665 -0.0010990346653937438 0.0015801492557582562 -0.0010990346653937438 -0.0014396711406327403" pbc="T T T"
Sr       0.00003612       0.00009431      10.30200384      -0.00106084       0.00067260      -0.29256840
Sr       1.18218697       2.36455593      15.35355163      -0.14227071       0.07527496       0.10323982
Ti       1.97047269       1.97057450      11.70161249       0.12242128      -0.07666310       0.08948879
Ti       3.15248573       0.39403080      16.81678164      -0.00507639       0.00926600      -0.03128467
O        0.00000902       1.97050521      11.83654868       0.13902932       0.05375534       0.17739918
O        1.18247295       0.39409860      16.95598113       0.00225357      -0.00443464      -0.00481259
O        1.97049401       3.94093312      11.86633259      -0.09536042      -0.09534499      -0.08623069
O        3.15285639       2.36457436      16.94596980       0.01033172      -0.00207771       0.02784428
O        1.97043419       1.97038596       9.89480436       0.01720171      -0.01005558       0.02908200
O        3.15282654       0.39404688      15.00173380      -0.04746925       0.04960738      -0.01215746
10
Lattice="3.940949890606662 0.0 0.0 0.0 3.940949890606662 0.0 0.0 0.0 26.940967945119528" Properties=species:S:1:pos:R:3:forces:R:3 tau=tau36 tau_p=3 tau_q=6 stage=B constraint=xy_fixed_z_free force_label=raw_dft energy=-15499.27374729612 free_energy=-15499.27374729612 stress="0.009280737174436058 -1.5608679458390678e-05 0.0015030240160815026 -1.5608679458390678e-05 0.010108915343345964 -0.0010026281157978012 0.0015030240160815026 -0.0010026281157978012 -0.0012734846122816395" pbc="T T T"
Sr       0.00003612       0.00009431      10.26764643      -0.00068263       0.00051165      -0.27925214
Sr       1.18218697       2.36455593      15.38323156      -0.13076579       0.06768635       0.10966449
Ti       1.97047269       1.97057450      11.66918204       0.11130100      -0.07016463       0.10043372
Ti       3.15248573       0.39403080      16.85323371      -0.00514889       0.00818973      -0.07396344
O        0.00000902       1.97050521      11.81564901       0.12844332       0.04925102       0.11509723
O        1.18247295       0.39409860      16.98488290       0.00193604      -0.00396104       0.04061983
O        1.97049401       3.94093312      11.82437481      -0.08293350      -0.08410438      -0.03853235
O        3.15285639       2.36457436      16.97652188       0.00933130      -0.00180260       0.06682631
O        1.97043419       1.97038596       9.86122438       0.01497873      -0.00897829       0.04755075
O        3.15282654       0.39404688      15.03937324      -0.04645958       0.04337245      -0.08844415
10
Lattice="3.940949890606662 0.0 0.0 0.0 3.940949890606662 0.0 0.0 0.0 26.940967945119528" Properties=species:S:1:pos:R:3:forces:R:3 tau=tau36 tau_p=3 tau_q=6 stage=B constraint=xy_fixed_z_free force_label=raw_dft energy=-15499.279336242253 free_energy=-15499.279336242253 stress="0.009841731477322922 -9.181576151994517e-06 0.0014194716730983525 -9.181576151994517e-06 0.010167677430718728 -0.0009089760390474571 0.0014194716730983525 -0.0009089760390474571 -0.0009457023436554353" pbc="T T T"
Sr       0.00003612       0.00009431      10.22151627      -0.00031470       0.00017124      -0.20001974
Sr       1.18218697       2.36455593      15.41998592      -0.11896057       0.05981389       0.09795183
Ti       1.97047269       1.97057450      11.63474235       0.10027739      -0.06421870       0.09800891
Ti       3.15248573       0.39403080      16.89280770      -0.00485604       0.00803958      -0.10439862
O        0.00000902       1.97050521      11.79199649       0.11725130       0.04458473       0.03609032
O        1.18247295       0.39409860      17.01908642       0.00167405      -0.00334089       0.07533846
O        1.97049401       3.94093312      11.77822125      -0.07104935      -0.07310700      -0.00348539
O        3.15285639       2.36457436      17.01285665       0.00821390      -0.00166170       0.09343569
O        1.97043419       1.97038596       9.82424517       0.01288046      -0.00804395       0.04677222
O        3.15282654       0.39404688      15.07986174      -0.04511695       0.03776256      -0.13969369
10
Lattice="3.940949890606662 0.0 0.0 0.0 3.940949890606662 0.0 0.0 0.0 26.940967945119528" Properties=species:S:1:pos:R:3:forces:R:3 tau=tau36 tau_p=3 tau_q=6 stage=B constraint=xy_fixed_z_free force_label=raw_dft energy=-15499.283113590502 free_energy=-15499.283113590502 stress="0.010410989198746582 -5.5089456911967096e-06 0.0013726456347231803 -5.5089456911967096e-06 0.010444961030508963 -0.0008575592125962879 0.0013726456347231803 -0.0008575592125962879 -0.000504068530744499" pbc="T T T"
Sr       0.00003612       0.00009431      10.18552032       0.00010464      -0.00011287      -0.09039176
Sr       1.18218697       2.36455593      15.44649005      -0.11198825       0.05542193       0.06722535
Ti       1.97047269       1.97057450      11.61601696       0.09482948      -0.06013605       0.05478789
Ti       3.15248573       0.39403080      16.91496584      -0.00525456       0.00683631      -0.08338165
O        0.00000902       1.97050521      11.77706438       0.11066079       0.04187710      -0.01506229
O        1.18247295       0.39409860      17.04265918       0.00157994      -0.00302696       0.06960722
O        1.97049401       3.94093312      11.75029567      -0.06474578      -0.06708779       0.00743177
O        3.15285639       2.36457436      17.03814778       0.00755801      -0.00147016       0.08243857
O        1.97043419       1.97038596       9.80221329       0.01181756      -0.00753153       0.03365471
O        3.15282654       0.39404688      15.10194650      -0.04456210       0.03523028      -0.12631007
10
Lattice="3.940949890606662 0.0 0.0 0.0 3.940949890606662 0.0 0.0 0.0 26.940967945119528" Properties=species:S:1:pos:R:3:forces:R:3 tau=tau36 tau_p=3 tau_q=6 stage=B constraint=xy_fixed_z_free force_label=raw_dft energy=-15499.285155804862 free_energy=-15499.285155804862 stress="0.010848032223581522 -5.5089456911967096e-06 0.0013340830148848033 -5.5089456911967096e-06 0.01079845171236075 -0.0008263418536795065 0.0013340830148848033 -0.0008263418536795065 1.9281309919188485e-05" pbc="T T T"
Sr       0.00003612       0.00009431      10.15711899       0.00040803      -0.00037718       0.00677151
Sr       1.18218697       2.36455593      15.46777672      -0.10650075       0.05256312       0.02530968
Ti       1.97047269       1.97057450      11.60351676       0.09138601      -0.05748344       0.00327430
Ti       3.15248573       0.39403080      16.92869219      -0.00552607       0.00619790      -0.04225377
O        0.00000902       1.97050521      11.76256964       0.10551087       0.03981096      -0.03105738
O        1.18247295       0.39409860      17.06256878       0.00151361      -0.00284364       0.03335029
O        1.97049401       3.94093312      11.73266087      -0.06105779      -0.06347025       0.00639588
O        3.15285639       2.36457436      17.05920155       0.00704431      -0.00137297       0.04219077
O        1.97043419       1.97038596       9.78708572       0.01118327      -0.00710833       0.01115370
O        3.15282654       0.39404688      15.11412874      -0.04396175       0.03408409      -0.05513499
10
Lattice="3.940949890606662 0.0 0.0 0.0 3.940949890606662 0.0 0.0 0.0 26.940967945119528" Properties=species:S:1:pos:R:3:forces:R:3 tau=tau36 tau_p=3 tau_q=6 stage=B constraint=xy_fixed_z_free force_label=raw_dft energy=-15499.285523158545 free_energy=-15499.285523158545 stress="0.010877413267267905 -5.5089456911967096e-06 0.001319392493041612 -5.5089456911967096e-06 0.010913221414260682 -0.0008208329079883099 0.001319392493041612 -0.0008208329079883099 0.0001772044197334942" pbc="T T T"
Sr       0.00003612       0.00009431      10.15093984       0.00044532      -0.00041240       0.02164020
Sr       1.18218697       2.36455593      15.47356358      -0.10467424       0.05193937       0.01246368
Ti       1.97047269       1.97057450      11.59998402       0.09061725      -0.05676404      -0.00770405
Ti       3.15248573       0.39403080      16.93107485      -0.00551810       0.00608529      -0.01364562
O        0.00000902       1.97050521      11.75572543       0.10373270       0.03912756      -0.01860630
O        1.18247295       0.39409860      17.06915371       0.00149561      -0.00280122       0.00580452
O        1.97049401       3.94093312      11.73001450      -0.06055822      -0.06289484       0.00155012
O        3.15285639       2.36457436      17.06589415       0.00686819      -0.00135909       0.01430665
O        1.97043419       1.97038596       9.78341515       0.01111154      -0.00700111       0.00062838
O        3.15282654       0.39404688      15.11555474      -0.04352003       0.03408049      -0.01643758
