10
Lattice="3.940949890606662 0.0 0.0 0.0 3.940949890606662 0.0 0.0 0.0 26.940967945119528" Properties=species:S:1:pos:R:3:forces:R:3 energy=-15497.559397867099 free_energy=-15497.559397867099 stress="0.005619124605020644 0.0009548839198074298 0.0005683395638084606 0.0009548839198074298 0.019542984839520328 0.011993892927350437 0.0005683395638084606 0.011993892927350437 -0.02912028692366581" pbc="T T T"
Sr       0.00003626       0.00009419      10.75260867      -0.00725565       0.00664219       0.34289466
Sr       0.39399686       1.57636577      14.64522241      -0.58145935      -0.68054170       4.49164035
Ti       1.97047258       1.97057465      12.38212169       0.89372471       0.39848011      -2.59999799
Ti       2.36429564       3.54679066      16.28444791       0.02689374      -0.13067220       0.14085994
O        0.00000906       1.97050529      12.45001441      -0.04373087       0.10515555      -1.30101625
O        0.39428297       3.54685845      16.39256827       0.00146733      -0.03526165      -0.08565424
O        1.97049386       3.94093294      12.44909065      -0.81747994       1.40706937      -3.14297281
O        2.36466649       1.57638429      16.37955485       0.08849094       0.01549192      -0.24680868
O        1.97043435       1.97038588      10.49176941       0.06298637       0.18612704       0.31363396
O        2.36463654       3.54680682      14.44792112       0.37636271      -1.27249038       2.08742081
10
Lattice="3.940949890606662 0.0 0.0 0.0 3.940949890606662 0.0 0.0 0.0 26.940967945119528" Properties=species:S:1:pos:R:3:forces:R:3 energy=-15498.267611547853 free_energy=-15498.267611547853 stress="0.00395266853343364 0.0007023905756275805 0.0012808298732032352 0.0007023905756275805 0.014747447615333592 0.009195348516222508 0.0012808298732032352 0.009195348516222508 -0.027687042886339466" pbc="T T T"
Sr       0.00003612       0.00009431      10.75966608      -0.00803650       0.00442950       0.31970357
Sr       0.39399699       1.57636594      14.73766838      -0.53057079      -0.42989899       2.84379205
Ti       1.97047269       1.97057450      12.32860954       0.65595784       0.35126206      -1.38636762
Ti       2.36429575       3.54679074      16.28734706       0.01907450      -0.10607832       0.55260489
O        0.00000902       1.97050521      12.42323731       0.11934521      -0.03625333      -0.55390664
O        0.39428297       3.54685853      16.39080542       0.00100170      -0.02926764       0.12365386
O        1.97049401       3.94093312      12.38440286      -0.61534469       1.04124382      -2.25880669
O        2.36466641       1.57638437      16.37447506       0.07681582       0.01641984       0.01032889
O        1.97043419       1.97038596      10.49822451       0.06207903       0.15849437      -0.50110621
O        2.36463656       3.54680681      14.49088376       0.21967788      -0.97035105       0.85010389
10
Lattice="3.940949890606662 0.0 0.0 0.0 3.940949890606662 0.0 0.0 0.0 26.940967945119528" Properties=species:S:1:pos:R:3:forces:R:3 energy=-15498.71696006853 free_energy=-15498.71696006853 stress="0.00149016980946871 0.0005407948353524771 0.0017555173602613516 0.0005407948353524771 0.009368880305495205 0.006975243402670235 0.0017555173602613516 0.006975243402670235 -0.025445820147637604" pbc="T T T"
Sr       0.00003612       0.00009431      10.77074256      -0.00960436       0.00128195       0.06283802
Sr       0.39399699       1.57636594      14.83935862      -0.46161843      -0.25913017       1.29852100
Ti       1.97047269       1.97057450      12.27813437       0.47962952       0.31166810      -0.55979884
Ti       2.36429575       3.54679074      16.30550102       0.01194046      -0.08580028       0.39277920
O        0.00000902       1.97050521      12.40249507       0.21612847      -0.12263314      -0.05514579
O        0.39428297       3.54685853      16.39461048       0.00018332      -0.02312065       0.45346007
O        1.97049401       3.94093312      12.30456305      -0.45044133       0.75859499      -1.36746410
O        2.36466641       1.57638437      16.37426691       0.06261999       0.01454730       0.39831427
O        1.97043419       1.97038596      10.48273105       0.05657121       0.13351970      -0.95350132
O        2.36463656       3.54680681      14.52291683       0.09459140      -0.72892780       0.32999723
10
Lattice="3.940949890606662 0.0 0.0 0.0 3.940949890606662 0.0 0.0 0.0 26.940967945119528" Properties=species:S:1:pos:R:3:forces:R:3 energy=-15498.963086355307 free_energy=-15498.963086355307 stress="-0.0016976734305037863 0.0004223525029917478 0.0020208649110539934 0.0004223525029917478 0.0035248070847506948 0.005106792655739351 0.0020208649110539934 0.005106792655739351 -0.02200640172110046" pbc="T T T"
Sr       0.00003612       0.00009431      10.77912945      -0.01095367      -0.00257599      -0.45539559
Sr       0.39399699       1.57636594      14.95128596      -0.38167872      -0.14489323      -0.11161956
Ti       1.97047269       1.97057450      12.22484003       0.34524105       0.27864331      -0.36146214
Ti       2.36429575       3.54679074      16.32992873       0.00530496      -0.06592591       0.24009861
O        0.00000902       1.97050521      12.38711637       0.26297526      -0.16754414       0.24538891
O        0.39428297       3.54685853      16.41488777       0.00050728      -0.01761874       0.76662994
O        1.97049401       3.94093312      12.20343448      -0.30888179       0.52462563      -0.36298757
O        2.36466641       1.57638437      16.39001960       0.04825472       0.01250996       0.77816186
O        1.97043419       1.97038596      10.43747483       0.04558309       0.10697923      -0.76940391
O        2.36463656       3.54680681      14.55720274      -0.00635242      -0.52420011       0.03058919
10
Lattice="3.940949890606662 0.0 0.0 0.0 3.940949890606662 0.0 0.0 0.0 26.940967945119528" Properties=species:S:1:pos:R:3:forces:R:3 energy=-15499.042382776915 free_energy=-15499.042382776915 stress="-0.001985974921676414 0.0003837898831533708 0.0020585093732771705 0.0003837898831533708 0.0020548367428163726 0.004442046542334948 0.0020585093732771705 0.004442046542334948 -0.019751406618170604" pbc="T T T"
Sr       0.00003612       0.00009431      10.77005308      -0.01110845      -0.00389625      -0.64938687
Sr       0.39399699       1.57636594      14.99339902      -0.34562234      -0.11231916      -0.47394044
Ti       1.97047269       1.97057450      12.19223943       0.29822586       0.26393865      -0.26327479
Ti       2.36429575       3.54679074      16.34488070       0.00282924      -0.05942436       0.29367577
O        0.00000902       1.97050521      12.38611571       0.27141002      -0.17540889       0.19043390
O        0.39428297       3.54685853      16.44189335       0.00127964      -0.01571047       0.75078038
O        1.97049401       3.94093312      12.15487118      -0.25796855       0.44333120      -0.01697159
O        2.36466641       1.57638437      16.41556048       0.04223628       0.01151520       0.78644004
O        1.97043419       1.97038596      10.40320264       0.03922758       0.09514187      -0.58567853
O        2.36463656       3.54680681      14.57310437      -0.04050927      -0.44716806      -0.03207811
10
Lattice="3.940949890606662 0.0 0.0 0.0 3.940949890606662 0.0 0.0 0.0 26.940967945119528" Properties=species:S:1:pos:R:3:forces:R:3 energy=-15499.136989003373 free_energy=-15499.136989003373 stress="-0.0006720913743259987 0.0003461454209301933 0.0020759543679659603 0.0003461454209301933 0.0019868930792916136 0.00383422620107291 0.0020759543679659603 0.00383422620107291 -0.016044804325610416" pbc="T T T"
Sr       0.00003612       0.00009431      10.74387443      -0.01066725      -0.00477402      -0.76247170
Sr       0.39399699       1.57636594      15.02989094      -0.31054941      -0.08611473      -0.62597517
Ti       1.97047269       1.97057450      12.14921067       0.25595409       0.24757178      -0.11626811
Ti       2.36429575       3.54679074      16.36896041      -0.00014064      -0.05399548       0.35537377
O        0.00000902       1.97050521      12.38733919       0.27638613      -0.17912824      -0.00229394
O        0.39428297       3.54685853      16.48809130       0.00232762      -0.01391352       0.59028158
O        1.97049401       3.94093312      12.10145155      -0.21095799       0.37045894       0.23026826
O        2.36466641       1.57638437      16.46103635       0.03619111       0.01025227       0.64275934
O        1.97043419       1.97038596      10.35435236       0.03215190       0.08264451      -0.34358680
O        2.36463656       3.54680681      14.59111277      -0.07069582      -0.37300202       0.03191305
10
Lattice="3.940949890606662 0.0 0.0 0.0 3.940949890606662 0.0 0.0 0.0 26.940967945119528" Properties=species:S:1:pos:R:3:forces:R:3 energy=-15499.246702309865 free_energy=-15499.246702309865 stress="0.0032227332293500756 0.00029564675209422343 0.002083299628887556 0.00029564675209422343 0.003908596967904066 0.0031878432399724964 0.002083299628887556 0.0031878432399724964 -0.009736143351574985" pbc="T T T"
Sr       0.00003612       0.00009431      10.68494768      -0.00888728      -0.00518052      -0.75173143
Sr       0.39399699       1.57636594      15.06432152      -0.27335506      -0.06257551      -0.53533067
Ti       1.97047269       1.97057450      12.08654781       0.21206125       0.22693148       0.07147847
Ti       2.36429575       3.54679074      16.41340472      -0.00325887      -0.04859745       0.43169336
O        0.00000902       1.97050521      12.38620926       0.27689727      -0.17842890      -0.35386941
O        0.39428297       3.54685853      16.56767795       0.00347767      -0.01174917       0.23809752
O        1.97049401       3.94093312      12.03358367      -0.16170002       0.29491042       0.37204197
O        2.36466641       1.57638437      16.54116579       0.02933809       0.00861808       0.29662200
O        1.97043419       1.97038596      10.27807616       0.02399456       0.06748040       0.00524325
O        2.36463656       3.54680681      14.61938540      -0.09856761      -0.29140883       0.22575494
10
Lattice="3.940949890606662 0.0 0.0 0.0 3.940949890606662 0.0 0.0 0.0 26.940967945119528" Properties=species:S:1:pos:R:3:forces:R:3 energy=-15499.30759376777 free_energy=-15499.30759376777 stress="0.00735168802490201 0.00025524781702544757 0.002097071993115548 0.00025524781702544757 0.006717241112799188 0.0028784241236502815 0.002097071993115548 0.0028784241236502815 -0.004813900376490725" pbc="T T T"
Sr       0.00003612       0.00009431      10.62301543      -0.00714304      -0.00469021      -0.56835470
Sr       0.39399699       1.57636594      15.07362190      -0.25726612      -0.05440377      -0.27767991
Ti       1.97047269       1.97057450      12.04512652       0.19301529       0.21557517       0.14697120
Ti       2.36429575       3.54679074      16.45655739      -0.00536384      -0.04749316       0.41201311
O        0.00000902       1.97050521      12.37576978       0.27199777      -0.17348750      -0.57423815
O        0.39428297       3.54685853      16.63040463       0.00409320      -0.01031064      -0.03463662
O        1.97049401       3.94093312      11.99564421      -0.13675569       0.25711417       0.31404894
O        2.36466641       1.57638437      16.60586848       0.02566835       0.00760301       0.01304629
O        1.97043419       1.97038596      10.22345857       0.01985226       0.05880421       0.19697530
O        2.36463656       3.54680681      14.64585305      -0.10809766      -0.24871104       0.37185454
10
Lattice="3.940949890606662 0.0 0.0 0.0 3.940949890606662 0.0 0.0 0.0 26.940967945119528" Properties=species:S:1:pos:R:3:forces:R:3 energy=-15499.350059989489 free_energy=-15499.350059989489 stress="0.010787433820978359 0.00021760335480227008 0.002125534879186731 0.00021760335480227008 0.009543330252383101 0.0027489638999071584 0.002125534879186731 0.0027489638999071584 -0.001500269543235904" pbc="T T T"
Sr       0.00003612       0.00009431      10.56388084      -0.00520597      -0.00355146      -0.29458440
Sr       0.39399699       1.57636594      15.06983444      -0.25280552      -0.05396000       0.00241915
Ti       1.97047269       1.97057450      12.02153514       0.18653868       0.20932765       0.10933899
Ti       2.36429575       3.54679074      16.49794812      -0.00625807      -0.04768856       0.29700175
O        0.00000902       1.97050521      12.35355064       0.26359592      -0.16644293      -0.62868794
O        0.39428297       3.54685853      16.67414961       0.00430146      -0.00911662      -0.17511861
O        1.97049401       3.94093312      11.97895727      -0.12415754       0.23792114       0.18436507
O        2.36466641       1.57638437      16.65238953       0.02372023       0.00679851      -0.14474565
O        1.97043419       1.97038596      10.18930625       0.01816716       0.05347663       0.24108926
O        2.36463656       3.54680681      14.67376813      -0.10789634      -0.22676436       0.40892264
10
Lattice="3.940949890606662 0.0 0.0 0.0 3.940949890606662 0.0 0.0 0.0 26.940967945119528" Properties=species:S:1:pos:R:3:forces:R:3 energy=-15499.382318812946 free_energy=-15499.382318812946 stress="0.01307731891328579 0.0001762862621182947 0.0021457343467211187 0.0001762862621182947 0.011869023491683311 0.0026801020787671995 0.0021457343467211187 0.0026801020787671995 0.0003709356765405785" pbc="T T T"
Sr       0.00003612       0.00009431      10.50924340      -0.00336943      -0.00220832       0.00654989
Sr       0.39399699       1.57636594      15.06452686      -0.25181616      -0.05651002       0.23751131
Ti       1.97047269       1.97057450      12.00777704       0.18483069       0.20533678      -0.00558778
Ti       2.36429575       3.54679074      16.53887045      -0.00674375      -0.04877023       0.10708079
O        0.00000902       1.97050521      12.31805534       0.25127031      -0.15768061      -0.53927860
O        0.39428297       3.54685853      16.70324527       0.00419218      -0.00785446      -0.18851868
O        1.97049401       3.94093312      11.97320559      -0.11688158       0.22538805       0.06800388
O        2.36466641       1.57638437      16.68464803       0.02243442       0.00589477      -0.17659982
O        1.97043419       1.97038596      10.16923306       0.01788614       0.04940452       0.16087624
O        2.36463656       3.54680681      14.70651492      -0.10180257      -0.21300021       0.32996252
10
Lattice="3.940949890606662 0.0 0.0 0.0 3.940949890606662 0.0 0.0 0.0 26.940967945119528" Properties=species:S:1:pos:R:3:forces:R:3 energy=-15499.401560254593 free_energy=-15499.401560254593 stress="0.013490489840125543 0.00014506890320151335 0.002124616721571531 0.00014506890320151335 0.012706383236745214 0.0026084857847816422 0.002124616721571531 0.0026084857847816422 0.0005371222048916793" pbc="T T T"
Sr       0.00003612       0.00009431      10.47789337      -0.00225691      -0.00154678       0.18470008
Sr       0.39399699       1.57636594      15.06875203      -0.24752807      -0.05773129       0.31630097
Ti       1.97047269       1.97057450      11.99973705       0.18157465       0.19966673      -0.10680902
Ti       2.36429575       3.54679074      16.56622907      -0.00704045      -0.04791996      -0.02606919
O        0.00000902       1.97050521      12.28175108       0.23831272      -0.14972922      -0.39007492
O        0.39428297       3.54685853      16.71472001       0.00397261      -0.00679028      -0.11378186
O        1.97049401       3.94093312      11.97164608      -0.11281512       0.21622643       0.03470115
O        2.36466641       1.57638437      16.69829645       0.02150676       0.00517717      -0.11190469
O        1.97043419       1.97038596      10.16164523       0.01831885       0.04637087       0.03033362
O        2.36463656       3.54680681      14.73464960      -0.09404530      -0.20372393       0.18260386
10
Lattice="3.940949890606662 0.0 0.0 0.0 3.940949890606662 0.0 0.0 0.0 26.940967945119528" Properties=species:S:1:pos:R:3:forces:R:3 energy=-15499.417346394715 free_energy=-15499.417346394715 stress="0.01282758004195154 0.00011752417474552982 0.002046573324279578 0.00011752417474552982 0.012553969072622103 0.002473516615347323 0.002046573324279578 0.002473516615347323 -9.457023436554353e-05" pbc="T T T"
Sr       0.00003612       0.00009431      10.45829451      -0.00155963      -0.00138788       0.25891035
Sr       0.39399699       1.57636594      15.08681889      -0.23480317      -0.05605108       0.27449174
Ti       1.97047269       1.97057450      11.98706260       0.17197441       0.18882850      -0.16484885
Ti       2.36429575       3.54679074      16.58902871      -0.00731659      -0.04524319      -0.10077953
O        0.00000902       1.97050521      12.24063244       0.22234386      -0.14046605      -0.22629873
O        0.39428297       3.54685853      16.72216564       0.00362011      -0.00558135      -0.00323162
O        1.97049401       3.94093312      11.96670991      -0.10780121       0.20415588       0.05711629
O        2.36466641       1.57638437      16.70734434       0.02019267       0.00467735      -0.00511932
O        1.97043419       1.97038596      10.15369577       0.01861273       0.04271399      -0.10260887
O        2.36463656       3.54680681      14.76356715      -0.08526318      -0.19164617       0.01236855
10
Lattice="3.940949890606662 0.0 0.0 0.0 3.940949890606662 0.0 0.0 0.0 26.940967945119528" Properties=species:S:1:pos:R:3:forces:R:3 energy=-15499.430092887202 free_energy=-15499.430092887202 stress="0.011642238560729047 9.548839198074298e-05 0.0019116041548452585 9.548839198074298e-05 0.011747826686476984 0.002272440097618643 0.0019116041548452585 0.002272440097618643 -0.0008722497344394791" pbc="T T T"
Sr       0.00003612       0.00009431      10.44546613      -0.00124159      -0.00158740       0.22752540
Sr       0.39399699       1.57636594      15.11813855      -0.21346070      -0.05174062       0.14674211
Ti       1.97047269       1.97057450      11.96478786       0.15569341       0.17302753      -0.16336147
Ti       2.36429575       3.54679074      16.61009773      -0.00707979      -0.04070082      -0.10806321
O        0.00000902       1.97050521      12.19760874       0.20411551      -0.12979674      -0.09920216
O        0.39428297       3.54685853      16.73417381       0.00311566      -0.00438450       0.09053420
O        1.97049401       3.94093312      11.95509599      -0.10076719       0.18834590       0.10553144
O        2.36466641       1.57638437      16.72049140       0.01820958       0.00425852       0.08998681
O        1.97043419       1.97038596      10.13738093       0.01819775       0.03807007      -0.17428197
O        2.36463656       3.54680681      14.79207883      -0.07678265      -0.17549193      -0.11541091
10
Lattice="3.940949890606662 0.0 0.0 0.0 3.940949890606662 0.0 0.0 0.0 26.940967945119528" Properties=species:S:1:pos:R:3:forces:R:3 energy=-15499.439651702127 free_energy=-15499.439651702127 stress="0.010606556770784066 7.896155490715285e-05 0.0017527628874157532 7.896155490715285e-05 0.010906794310954288 0.0020502459547403758 0.0017527628874157532 0.0020502459547403758 -0.0011431062309233172" pbc="T T T"
Sr       0.00003612       0.00009431      10.43283795      -0.00115391      -0.00189850       0.13378710
Sr       0.39399699       1.57636594      15.15540641      -0.18868323      -0.04668146       0.01011755
Ti       1.97047269       1.97057450      11.93326986       0.13677009       0.15558774      -0.11674660
Ti       2.36429575       3.54679074      16.63206084      -0.00628378      -0.03593297      -0.07016206
O        0.00000902       1.97050521      12.15590563       0.18570795      -0.11850137      -0.03635026
O        0.39428297       3.54685853      16.75589917       0.00264824      -0.00339129       0.12412515
O        1.97049401       3.94093312      11.93823580      -0.09258902       0.17137148       0.13616305
O        2.36466641       1.57638437      16.74320816       0.01590279       0.00392685       0.12690708
O        1.97043419       1.97038596      10.10998181       0.01698676       0.03311812      -0.15601428
O        2.36463656       3.54680681      14.81851435      -0.06930563      -0.15759834      -0.15182698
10
Lattice="3.940949890606662 0.0 0.0 0.0 3.940949890606662 0.0 0.0 0.0 26.940967945119528" Properties=species:S:1:pos:R:3:forces:R:3 energy=-15499.445572899254 free_energy=-15499.445572899254 stress="0.01016492295787313 6.610734829436053e-05 0.0016095302994446389 6.610734829436053e-05 0.010579930199943282 0.0018638599588548868 0.0016095302994446389 0.0018638599588548868 -0.0006812729504779932" pbc="T T T"
Sr       0.00003612       0.00009431      10.41696353      -0.00098859      -0.00207848       0.04638759
Sr       0.39399699       1.57636594      15.18799629      -0.16736313      -0.04277879      -0.06300668
Ti       1.97047269       1.97057450      11.89919809       0.12090304       0.14092731      -0.05391886
Ti       2.36429575       3.54679074      16.65473733      -0.00542528      -0.03295177      -0.02418251
O        0.00000902       1.97050521      12.11868620       0.16979694      -0.10825578      -0.02743316
O        0.39428297       3.54685853      16.78465268       0.00234125      -0.00260658       0.09149733
O        1.97049401       3.94093312      11.92184423      -0.08544881       0.15728775       0.12094135
O        2.36466641       1.57638437      16.77308412       0.01381917       0.00374353       0.09568849
O        1.97043419       1.97038596      10.07710860       0.01550452       0.02885112      -0.07955456
O        2.36463656       3.54680681      14.84104890      -0.06313884      -0.14213804      -0.10641899
10
Lattice="3.940949890606662 0.0 0.0 0.0 3.940949890606662 0.0 0.0 0.0 26.940967945119528" Properties=species:S:1:pos:R:3:forces:R:3 energy=-15499.447813892773 free_energy=-15499.447813892773 stress="0.010238375567089085 6.059840260316382e-05 0.0015314869021526853 6.059840260316382e-05 0.010793860924284755 0.001776634985410939 0.0015314869021526853 0.001776634985410939 -1.1017891382393419e-05" pbc="T T T"
Sr       0.00003612       0.00009431      10.40482339      -0.00087803      -0.00207051       0.01278173
Sr       0.39399699       1.57636594      15.20335195      -0.15657144      -0.04141764      -0.05769093
Ti       1.97047269       1.97057450      11.87814960       0.11361885       0.13325976      -0.01749867
Ti       2.36429575       3.54679074      16.66954217      -0.00497251      -0.03144793       0.00060190
O        0.00000902       1.97050521      12.09583550       0.16097111      -0.10246437      -0.03376964
O        0.39428297       3.54685853      16.80527804       0.00219829      -0.00226180       0.04008453
O        1.97049401       3.94093312      11.91489964      -0.08225910       0.15097723       0.07669575
O        2.36466641       1.57638437      16.79465036       0.01263234       0.00359852       0.04275359
O        1.97043419       1.97038596      10.05549423       0.01468974       0.02650859      -0.01717420
O        2.36463656       3.54680681      14.85329508      -0.05942899      -0.13468158      -0.04678431
10
Lattice="3.940949890606662 0.0 0.0 0.0 3.940949890606662 0.0 0.0 0.0 26.940967945119528" Properties=species:S:1:pos:R:3:forces:R:3 energy=-15499.448470639521 free_energy=-15499.448470639521 stress="0.01033202764383943 5.7843929757565454e-05 0.0015011877008511037 5.7843929757565454e-05 0.01106655373599899 0.0017573536754917506 0.0015011877008511037 0.0017573536754917506 0.0003406364752389966" pbc="T T T"
Sr       0.00003612       0.00009431      10.39971270      -0.00084024      -0.00206768       0.00953082
Sr       0.39399699       1.57636594      15.20668051      -0.15299067      -0.04153154      -0.03213622
Ti       1.97047269       1.97057450      11.87016135       0.11150283       0.13048477      -0.00076465
Ti       2.36429575       3.54679074      16.67572473      -0.00466604      -0.03111292       0.00293029
O        0.00000902       1.97050521      12.08464716       0.15738519      -0.10002903      -0.02864492
O        0.39428297       3.54685853      16.81400975       0.00214764      -0.00209905       0.00982778
O        1.97049401       3.94093312      11.91573763      -0.08193000       0.15009637       0.03747177
O        2.36466641       1.57638437      16.80394867       0.01222431       0.00356792       0.01060709
O        1.97043419       1.97038596      10.04722534       0.01454679       0.02562747       0.00537978
O        2.36463656       3.54680681      14.85747210      -0.05737982      -0.13293632      -0.01420175
10
Lattice="3.940949890606662 0.0 0.0 0.0 3.940949890606662 0.0 0.0 0.0 26.940967945119528" Properties=species:S:1:pos:R:3:forces:R:3 energy=-15499.44875567877 free_energy=-15499.44875567877 stress="0.010343963692837022 5.876208737276491e-05 0.0015011877008511037 5.876208737276491e-05 0.011238249210041289 0.001776634985410939 0.0015011877008511037 0.001776634985410939 0.00040949829637895545" pbc="T T T"
Sr       0.00003612       0.00009431      10.40137064      -0.00087495      -0.00209828       0.01155042
Sr       0.39399699       1.57636594      15.20318795      -0.15379285      -0.04224425      -0.01157434
Ti       1.97047269       1.97057450      11.87132049       0.11254721       0.13091543       0.00157377
Ti       2.36429575       3.54679074      16.67465842      -0.00458993      -0.03150296      -0.00010464
O        0.00000902       1.97050521      12.08283301       0.15745461      -0.09999534      -0.01682221
O        0.39428297       3.54685853      16.81353572       0.00214224      -0.00207822      -0.00142311
O        1.97049401       3.94093312      11.92087070      -0.08328215       0.15245690       0.01369909
O        2.36466641       1.57638437      16.80362383       0.01227573       0.00359363      -0.00172881
O        1.97043419       1.97038596      10.04843572       0.01476096       0.02572672       0.00659925
O        2.36463656       3.54680681      14.85548348      -0.05664089      -0.13477363      -0.00176943
