10
Lattice="3.940949890606662 0.0 0.0 0.0 3.940949890606662 0.0 0.0 0.0 26.940967945119528" Properties=species:S:1:pos:R:3:forces:R:3 tau=tau68 tau_p=6 tau_q=8 stage=B constraint=xy_fixed_z_free force_label=raw_dft energy=-15499.350762451362 free_energy=-15499.350762451362 stress="0.010152068751260337 5.417129929676765e-05 -0.0013928451022575683 5.417129929676765e-05 0.010286119763079457 -0.002094317520269949 -0.0013928451022575683 -0.002094317520269949 -0.0012900114493552297" pbc="T T T"
Sr       0.00003626       0.00009419      10.33970944       0.00040521      -0.00032396       0.11197489
Sr       2.36447180       3.15274573      15.27921879       0.06254620       0.19917565      -0.07862691
Ti       1.97047258       1.97057465      11.81318922      -0.10565254      -0.14976290      -0.09998300
Ti       0.39382070       1.18222073      16.73328703       0.01986203       0.00831340      -0.06282671
O        0.00000906       1.97050529      11.88427608      -0.11726159       0.10959147       0.07972682
O        2.36475792       1.18228851      16.84685062      -0.00343834      -0.01579789       0.17769974
O        1.97049386       3.94093294      12.00079578       0.08047964      -0.20427672      -0.03920341
O        0.39419154       3.15276425      16.85805238      -0.00162674      -0.00391039       0.15325420
O        1.97043435       1.97038588       9.99428518      -0.01770410      -0.01978001      -0.08911983
O        0.39416159       1.18223689      14.92565489       0.08238972       0.07677134      -0.15289579
10
Lattice="3.940949890606662 0.0 0.0 0.0 3.940949890606662 0.0 0.0 0.0 26.940967945119528" Properties=species:S:1:pos:R:3:forces:R:3 tau=tau68 tau_p=6 tau_q=8 stage=B constraint=xy_fixed_z_free force_label=raw_dft energy=-15499.353059636387 free_energy=-15499.353059636387 stress="0.010274183714081864 5.50894569119671e-05 -0.0013946814174879672 5.50894569119671e-05 0.010343045535221824 -0.002087890416963553 -0.0013946814174879672 -0.002087890416963553 -0.0010512904694033722" pbc="T T T"
Sr       0.00003612       0.00009431      10.34201416       0.00049854      -0.00019926       0.09133510
Sr       2.36447194       3.15274591      15.27760062       0.06246675       0.19881312      -0.05987097
Ti       1.97047269       1.97057450      11.81113151      -0.10545071      -0.14970582      -0.07531970
Ti       0.39382079       1.18222079      16.73199414       0.01987257       0.00817097      -0.03960707
O        0.00000902       1.97050521      11.88591699      -0.11808794       0.11041114       0.06341266
O        2.36475793       1.18228858      16.85050799      -0.00344965      -0.01566445       0.13473738
O        1.97049401       3.94093312      11.99998890       0.08058352      -0.20450992      -0.04597724
O        0.39419145       3.15276434      16.86120659      -0.00160411      -0.00390062       0.11259966
O        1.97043419       1.97038596       9.99245090      -0.01764677      -0.01978053      -0.07103315
O        0.39416160       1.18223686      14.92250816       0.08281780       0.07636562      -0.11027667
10
Lattice="3.940949890606662 0.0 0.0 0.0 3.940949890606662 0.0 0.0 0.0 26.940967945119528" Properties=species:S:1:pos:R:3:forces:R:3 tau=tau68 tau_p=6 tau_q=8 stage=B constraint=xy_fixed_z_free force_label=raw_dft energy=-15499.35488266305 free_energy=-15499.35488266305 stress="0.01043210682389617 5.6925772142366004e-05 -0.0013965177327183661 5.6925772142366004e-05 0.010412825513976981 -0.0020805451560419576 -0.0013965177327183661 -0.0020805451560419576 -0.0007593163477699466" pbc="T T T"
Sr       0.00003612       0.00009431      10.34473780       0.00059907      -0.00004165       0.06386132
Sr       2.36447194       3.15274591      15.27581308       0.06244284       0.19836858      -0.04084737
Ti       1.97047269       1.97057450      11.80888228      -0.10525865      -0.14969554      -0.05435621
Ti       0.39382079       1.18222079      16.73080712       0.01991988       0.00802544      -0.01714489
O        0.00000902       1.97050521      11.88780880      -0.11902974       0.11134702       0.04729724
O        2.36475793       1.18228858      16.85453109      -0.00345273      -0.01551584       0.08998475
O        1.97049401       3.94093312      11.99862498       0.08062851      -0.20462536      -0.04914021
O        0.39419145       3.15276434      16.86457067      -0.00158714      -0.00387440       0.07080304
O        1.97043419       1.97038596       9.99033183      -0.01757580      -0.01979955      -0.04775130
O        0.39416160       1.18223686      14.91921233       0.08331351       0.07581078      -0.06270612
10
Lattice="3.940949890606662 0.0 0.0 0.0 3.940949890606662 0.0 0.0 0.0 26.940967945119528" Properties=species:S:1:pos:R:3:forces:R:3 tau=tau68 tau_p=6 tau_q=8 stage=B constraint=xy_fixed_z_free force_label=raw_dft energy=-15499.356301328547 free_energy=-15499.356301328547 stress="0.010645119390622444 5.7843929757565454e-05 -0.0013992722055639643 5.7843929757565454e-05 0.01046791497088895 -0.0020667727918139657 -0.0013992722055639643 -0.0020667727918139657 -0.00036818120369498013" pbc="T T T"
Sr       0.00003612       0.00009431      10.34894663       0.00077082       0.00020235       0.02208192
Sr       2.36447194       3.15274591      15.27309305       0.06245570       0.19753014      -0.00995145
Ti       1.97047269       1.97057450      11.80532490      -0.10487633      -0.14961506      -0.02208372
Ti       0.39382079       1.18222079      16.72943951       0.01997156       0.00779044       0.01265317
O        0.00000902       1.97050521      11.89086720      -0.12046750       0.11281075       0.02218605
O        2.36475793       1.18228858      16.86056575      -0.00345865      -0.01529086       0.02559302
O        1.97049401       3.94093312      11.99576153       0.08056166      -0.20447598      -0.05074638
O        0.39419145       3.15276434      16.86942151      -0.00156580      -0.00383429       0.01163656
O        1.97043419       1.97038596       9.98714233      -0.01745188      -0.01985277      -0.01508261
O        0.39416160       1.18223686      14.91475756       0.08406068       0.07473528       0.00371344
10
Lattice="3.940949890606662 0.0 0.0 0.0 3.940949890606662 0.0 0.0 0.0 26.940967945119528" Properties=species:S:1:pos:R:3:forces:R:3 tau=tau68 tau_p=6 tau_q=8 stage=B constraint=xy_fixed_z_free force_label=raw_dft energy=-15499.356518203276 free_energy=-15499.356518203276 stress="0.01073326252168159 5.876208737276491e-05 -0.0014011085207943632 5.876208737276491e-05 0.010454142606660957 -0.0020585093732771705 -0.0014011085207943632 -0.0020585093732771705 -0.00023229387664546128" pbc="T T T"
Sr       0.00003612       0.00009431      10.35090977       0.00085746       0.00032319       0.00132643
Sr       2.36447194       3.15274591      15.27194036       0.06253000       0.19693493       0.00457888
Ti       1.97047269       1.97057450      11.80356502      -0.10461176      -0.14953485      -0.00856126
Ti       0.39382079       1.18222079      16.72932239       0.01998467       0.00767371       0.02167569
O        0.00000902       1.97050521      11.89246267      -0.12111207       0.11349955       0.01101358
O        2.36475793       1.18228858      16.86323314      -0.00345633      -0.01517774       0.00081813
O        1.97049401       3.94093312      11.99347152       0.08035803      -0.20399132      -0.04643258
O        0.39419145       3.15276434      16.87132882      -0.00156452      -0.00381012      -0.00984115
O        1.97043419       1.97038596       9.98569331      -0.01737269      -0.01990420      -0.00248137
O        0.39416160       1.18223686      14.91339296       0.08438746       0.07398709       0.02790341
10
Lattice="3.940949890606662 0.0 0.0 0.0 3.940949890606662 0.0 0.0 0.0 26.940967945119528" Properties=species:S:1:pos:R:3:forces:R:3 tau=tau68 tau_p=6 tau_q=8 stage=B constraint=xy_fixed_z_free force_label=raw_dft energy=-15499.356618749342 free_energy=-15499.356618749342 stress="0.010761725407752772 5.7843929757565454e-05 -0.0014011085207943632 5.7843929757565454e-05 0.010410989198746582 -0.0020520822699707747 -0.0014011085207943632 -0.0020520822699707747 -0.00022127598526306785" pbc="T T T"
Sr       0.00003612       0.00009431      10.35164111       0.00089192       0.00037332      -0.00798250
Sr       2.36447194       3.15274591      15.27163864       0.06262230       0.19645568       0.01101486
Ti       1.97047269       1.97057450      11.80271431      -0.10440864      -0.14945540      -0.00431971
Ti       0.39382079       1.18222079      16.72979175       0.02000087       0.00761689       0.02102365
O        0.00000902       1.97050521      11.89330803      -0.12134527       0.11378134       0.00654320
O        2.36475793       1.18228858      16.86423080      -0.00345531      -0.01511783      -0.00449712
O        1.97049401       3.94093312      11.99153148       0.08008781      -0.20335009      -0.03992923
O        0.39419145       3.15276434      16.87179561      -0.00157609      -0.00379058      -0.01289203
O        1.97043419       1.97038596       9.98510529      -0.01731484      -0.01994790      -0.00005939
O        0.39416160       1.18223686      14.91356295       0.08449751       0.07343456       0.03109801
10
Lattice="3.940949890606662 0.0 0.0 0.0 3.940949890606662 0.0 0.0 0.0 26.940967945119528" Properties=species:S:1:pos:R:3:forces:R:3 tau=tau68 tau_p=6 tau_q=8 stage=B constraint=xy_fixed_z_free force_label=raw_dft energy=-15499.356724601625 free_energy=-15499.356724601625 stress="0.010777334087211165 5.7843929757565454e-05 -0.001402026678409563 5.7843929757565454e-05 0.010354981584219417 -0.0020456551666643784 -0.001402026678409563 -0.0020456551666643784 -0.00024422992564305417" pbc="T T T"
Sr       0.00003612       0.00009431      10.35203892       0.00091686       0.00040675      -0.01475839
Sr       2.36447194       3.15274591      15.27161181       0.06273055       0.19591832       0.01546673
Ti       1.97047269       1.97057450      11.80199446      -0.10418419      -0.14934844      -0.00247931
Ti       0.39382079       1.18222079      16.73049424       0.02000164       0.00757524       0.01803860
O        0.00000902       1.97050521      11.89405599      -0.12148128       0.11397263       0.00318045
O        2.36475793       1.18228858      16.86491825      -0.00345222      -0.01506409      -0.00502702
O        1.97049401       3.94093312      11.98939743       0.07975048      -0.20254816      -0.03189248
O        0.39419145       3.15276434      16.87194214      -0.00159100      -0.00377309      -0.01112671
O        1.97043419       1.97038596       9.98465441      -0.01725262      -0.01999521      -0.00016429
O        0.39416160       1.18223686      14.91421232       0.08456153       0.07285581       0.02876216
10
Lattice="3.940949890606662 0.0 0.0 0.0 3.940949890606662 0.0 0.0 0.0 26.940967945119528" Properties=species:S:1:pos:R:3:forces:R:3 tau=tau68 tau_p=6 tau_q=8 stage=B constraint=xy_fixed_z_free force_label=raw_dft energy=-15499.356860522488 free_energy=-15499.356860522488 stress="0.010786515663363158 5.6925772142366004e-05 -0.001402026678409563 5.6925772142366004e-05 0.010262247665084271 -0.002036473590512384 -0.001402026678409563 -0.002036473590512384 -0.0003057464858614174" pbc="T T T"
Sr       0.00003612       0.00009431      10.35221286       0.00094154       0.00043400      -0.02152373
Sr       2.36447194       3.15274591      15.27189799       0.06288687       0.19506034       0.01972782
Ti       1.97047269       1.97057450      11.80104869      -0.10383811      -0.14912578      -0.00128787
Ti       0.39382079       1.18222079      16.73168323       0.01999058       0.00751225       0.01227805
O        0.00000902       1.97050521      11.89502761      -0.12157796       0.11415364      -0.00112511
O        2.36475793       1.18228858      16.86569854      -0.00344656      -0.01499005      -0.00219804
O        1.97049401       3.94093312      11.98619635       0.07921080      -0.20125953      -0.01966380
O        0.39419145       3.15276434      16.87194942      -0.00161800      -0.00374558      -0.00503782
O        1.97043419       1.97038596       9.98407687      -0.01715440      -0.02005872      -0.00247700
O        0.39416160       1.18223686      14.91552841       0.08460472       0.07201917       0.02130725
