10
Lattice="3.940949890606662 0.0 0.0 0.0 3.940949890606662 0.0 0.0 0.0 26.940967945119528" Properties=species:S:1:pos:R:3:forces:R:3 tau=tau24 tau_p=2 tau_q=4 stage=B constraint=xy_fixed_z_free force_label=raw_dft energy=-15497.436502141749 free_energy=-15497.436502141749 stress="0.007535319547941901 0.0013092927592744182 0.003262214006803652 0.0013092927592744182 0.019015962368395842 0.009316545321428837 0.003262214006803652 0.009316545321428837 -0.023368029464441244" pbc="T T T"
Sr       0.00003626       0.00009419      10.75260867      -0.01067651       0.00862682       0.47653726
Sr       0.78809185       1.57636577      14.64522241      -1.19749927      -0.75527775       4.46969470
Ti       1.97047258       1.97057465      12.38212169       1.47154878       0.55752238      -3.53599575
Ti       2.75839063       3.54679066      16.28444791       0.02264422      -0.08878379      -0.22536568
O        0.00000906       1.97050529      12.45001441       0.16121280      -0.13815437      -0.89298707
O        0.78837796       3.54685845      16.39256827       0.01645635      -0.00171878      -0.08149369
O        1.97049386       3.94093294      12.44909065      -1.12335508       1.06127888      -2.05576410
O        2.75876148       1.57638429      16.37955485       0.14160479       0.01372789      -0.20014367
O        1.97043435       1.97038588      10.49176941       0.10085049       0.14679096       0.38182862
O        2.75873153       3.54680682      14.44792112       0.41721342      -0.80401198       1.66368938
10
Lattice="3.940949890606662 0.0 0.0 0.0 3.940949890606662 0.0 0.0 0.0 26.940967945119528" Properties=species:S:1:pos:R:3:forces:R:3 tau=tau24 tau_p=2 tau_q=4 stage=B constraint=xy_fixed_z_free force_label=raw_dft energy=-15498.09395529887 free_energy=-15498.09395529887 stress="0.0057596027201461605 0.0010907712468569487 0.002962894624248631 0.0010907712468569487 0.014000985474176438 0.007281908046146851 0.002962894624248631 0.007281908046146851 -0.025468774088017593" pbc="T T T"
Sr       0.00003612       0.00009431      10.76241667      -0.01156174       0.00705408       0.51860771
Sr       0.78809198       1.57636594      14.73721670      -0.94011384      -0.51132248       2.90216869
Ti       1.97047269       1.97057450      12.30934509       1.00765904       0.40989298      -1.33480723
Ti       2.75839074       3.54679074      16.27980950       0.01740483      -0.07207702       0.30861851
O        0.00000902       1.97050521      12.43163525       0.31472771      -0.18371303      -0.64929559
O        0.78837796       3.54685853      16.39089105       0.01206130      -0.00257213       0.07132986
O        1.97049401       3.94093312      12.40677948      -0.91528213       0.85377466      -1.78140142
O        2.75876140       1.57638437      16.37543551       0.12339367       0.01466249      -0.00517769
O        1.97043419       1.97038596      10.49962808       0.09961739       0.12514125      -0.83341152
O        2.75873155       3.54680681      14.48216264       0.29209352      -0.64084104       0.80336895
10
Lattice="3.940949890606662 0.0 0.0 0.0 3.940949890606662 0.0 0.0 0.0 26.940967945119528" Properties=species:S:1:pos:R:3:forces:R:3 tau=tau24 tau_p=2 tau_q=4 stage=B constraint=xy_fixed_z_free force_label=raw_dft energy=-15498.504870188859 free_energy=-15498.504870188859 stress="0.0030464469672317803 0.0008878584138978698 0.0030032935593174064 0.0008878584138978698 0.008732597078161985 0.005707267736079792 0.0030032935593174064 0.005707267736079792 -0.0252878970378233" pbc="T T T"
Sr       0.00003612       0.00009431      10.77924185      -0.01476533       0.00277885       0.22681321
Sr       0.78809198       1.57636594      14.83841009      -0.76993972      -0.34466486       1.44539115
Ti       1.97047269       1.97057450      12.25702420       0.72144486       0.32620434      -0.28712486
Ti       2.75839074       3.54679074      16.28783516       0.01306557      -0.05852782       0.47295597
O        0.00000902       1.97050521      12.40941322       0.41111220      -0.21136062      -0.33526722
O        0.78837796       3.54685853      16.39263120       0.00768734      -0.00227543       0.34120879
O        1.97049401       3.94093312      12.34735032      -0.72312893       0.67699357      -1.28160442
O        2.75876140       1.57638437      16.37450477       0.10249137       0.01329183       0.31331540
O        1.97043419       1.97038596      10.47706990       0.08981249       0.10509178      -1.19904630
O        2.75873155       3.54680681      14.51183927       0.16222015      -0.50753165       0.30335829
10
Lattice="3.940949890606662 0.0 0.0 0.0 3.940949890606662 0.0 0.0 0.0 26.940967945119528" Properties=species:S:1:pos:R:3:forces:R:3 tau=tau24 tau_p=2 tau_q=4 stage=B constraint=xy_fixed_z_free force_label=raw_dft energy=-15498.765670758614 free_energy=-15498.765670758614 stress="-0.0012716482970512406 0.0006913726842451871 0.0030602193314597727 0.0006913726842451871 0.0020575912156619715 0.004184044252463901 0.0030602193314597727 0.004184044252463901 -0.022050473286630033" pbc="T T T"
Sr       0.00003612       0.00009431      10.79819970      -0.01835922      -0.00287064      -0.43375102
Sr       0.78809198       1.57636594      14.96706645      -0.59970621      -0.20955776      -0.16550577
Ti       1.97047269       1.97057450      12.20254644       0.49658261       0.26392811      -0.26395331
Ti       2.75839074       3.54679074      16.30998612       0.00691293      -0.04507787       0.37669618
O        0.00000902       1.97050521      12.38097493       0.45525598      -0.21919889       0.00944778
O        0.78837796       3.54685853      16.40782211       0.00453954      -0.00189285       0.73246230
O        1.97049401       3.94093312      12.25646265      -0.51823592       0.49207084      -0.47535532
O        2.75876140       1.57638437      16.38675134       0.07657002       0.01115499       0.76258843
O        1.97043419       1.97038596      10.41887400       0.07113857       0.08226836      -0.63796397
O        2.75873155       3.54680681      14.54663623       0.02530197      -0.37082430       0.09533496
10
Lattice="3.940949890606662 0.0 0.0 0.0 3.940949890606662 0.0 0.0 0.0 26.940967945119528" Properties=species:S:1:pos:R:3:forces:R:3 tau=tau24 tau_p=2 tau_q=4 stage=B constraint=xy_fixed_z_free force_label=raw_dft energy=-15498.834162764206 free_energy=-15498.834162764206 stress="-0.0018326425999381055 0.0006271016511812255 0.003061137489074972 0.0006271016511812255 0.0006555645372524085 0.003712111238251383 0.003061137489074972 0.003712111238251383 -0.020126933082787183" pbc="T T T"
Sr       0.00003612       0.00009431      10.79285344      -0.01891638      -0.00451049      -0.63663163
Sr       0.78809198       1.57636594      15.00526471      -0.54426397      -0.17543280      -0.50295997
Ti       1.97047269       1.97057450      12.17444427       0.43589609       0.24586920      -0.23369708
Ti       2.75839074       3.54679074      16.32518108       0.00419990      -0.04101475       0.38512734
O        0.00000902       1.97050521      12.37195641       0.45609467      -0.21602280       0.01528855
O        0.78837796       3.54685853      16.43063822       0.00453543      -0.00193964       0.74157789
O        1.97049401       3.94093312      12.21625206      -0.44890690       0.43056336      -0.21152389
O        2.75876140       1.57638437      16.40934163       0.06753902       0.01029958       0.78513109
O        1.97043419       1.97038596      10.38787909       0.06305939       0.07443935      -0.42614261
O        2.75873155       3.54680681      14.56150904      -0.01923751      -0.32225101       0.08383030
10
Lattice="3.940949890606662 0.0 0.0 0.0 3.940949890606662 0.0 0.0 0.0 26.940967945119528" Properties=species:S:1:pos:R:3:forces:R:3 tau=tau24 tau_p=2 tau_q=4 stage=B constraint=xy_fixed_z_free force_label=raw_dft energy=-15498.91745123188 free_energy=-15498.91745123188 stress="-0.0011697328017641014 0.0005600761452716655 0.003073073538072565 0.0005600761452716655 0.0004333703943741412 0.0032897587352596356 0.003073073538072565 0.0032897587352596356 -0.017407350226566407" pbc="T T T"
Sr       0.00003612       0.00009431      10.77457700      -0.01870760      -0.00573356      -0.76678344
Sr       0.78809198       1.57636594      15.03545388      -0.49594909      -0.14811560      -0.63347123
Ti       1.97047269       1.97057450      12.14012888       0.38522942       0.23055519      -0.16391863
Ti       2.75839074       3.54679074      16.34794999       0.00110223      -0.03810349       0.40197090
O        0.00000902       1.97050521      12.36228079       0.45264708      -0.21068596      -0.05432175
O        0.78837796       3.54685853      16.46728124       0.00508538      -0.00208851       0.63765570
O        1.97049401       3.94093312      12.17202041      -0.38355820       0.37342702       0.00149381
O        2.75876140       1.57638437      16.44657319       0.05904590       0.00936062       0.68662364
O        1.97043419       1.97038596      10.34994514       0.05494473       0.06686848      -0.24188347
O        2.75873155       3.54680681      14.57910945      -0.05983960      -0.27548393       0.13263473
10
Lattice="3.940949890606662 0.0 0.0 0.0 3.940949890606662 0.0 0.0 0.0 26.940967945119528" Properties=species:S:1:pos:R:3:forces:R:3 tau=tau24 tau_p=2 tau_q=4 stage=B constraint=xy_fixed_z_free force_label=raw_dft energy=-15499.033465062195 free_energy=-15499.033465062195 stress="0.0011394336004625196 0.00046642406852132143 0.003087764059915756 0.00046642406852132143 0.0015011877008511037 0.0027884446773607345 0.003087764059915756 0.0027884446773607345 -0.01292490474916268" pbc="T T T"
Sr       0.00003612       0.00009431      10.73185710      -0.01707341      -0.00660953      -0.83626827
Sr       0.78809198       1.57636594      15.06819390      -0.44026594      -0.11893769      -0.59829699
Ti       1.97047269       1.97057450      12.08736251       0.32824863       0.21169306      -0.04664470
Ti       2.75839074       3.54679074      16.38976668      -0.00292977      -0.03507705       0.42350311
O        0.00000902       1.97050521      12.34548313       0.44121621      -0.20021669      -0.21380085
O        0.78837796       3.54685853      16.53181638       0.00600533      -0.00218004       0.39414909
O        1.97049401       3.94093312      12.10839968      -0.30480659       0.30454768       0.21101095
O        2.75876140       1.57638437      16.51292066       0.04869001       0.00806452       0.44119513
O        1.97043419       1.97038596      10.29073283       0.04454462       0.05716437      -0.02331888
O        2.75873155       3.54680681      14.60878710      -0.10362908      -0.21844864       0.24847141
10
Lattice="3.940949890606662 0.0 0.0 0.0 3.940949890606662 0.0 0.0 0.0 26.940967945119528" Properties=species:S:1:pos:R:3:forces:R:3 tau=tau24 tau_p=2 tau_q=4 stage=B constraint=xy_fixed_z_free force_label=raw_dft energy=-15499.149596989917 free_energy=-15499.149596989917 stress="0.005516290952118306 0.0003461454209301933 0.003076746168533363 0.0003461454209301933 0.004283205274905442 0.0022696856247730445 0.003076746168533363 0.0022696856247730445 -0.006796202667706341" pbc="T T T"
Sr       0.00003612       0.00009431      10.65272156      -0.01338054      -0.00634574      -0.76278743
Sr       0.78809198       1.57636594      15.10073838      -0.38320596      -0.09216891      -0.34892904
Ti       1.97047269       1.97057450      12.01566723       0.27078113       0.18755426       0.08969910
Ti       2.75839074       3.54679074      16.45858472      -0.00696718      -0.03108978       0.42414049
O        0.00000902       1.97050521      12.31495191       0.41571241      -0.18229379      -0.44535723
O        0.78837796       3.54685853      16.62776766       0.00668693      -0.00185968       0.03260364
O        1.97049401       3.94093312      12.02638343      -0.22460746       0.23356852       0.35055577
O        2.75876140       1.57638437      16.61244187       0.03818731       0.00658974       0.06618045
O        1.97043419       1.97038596      10.20877699       0.03347833       0.04620478       0.18669423
O        2.75873155       3.54680681      14.65728621      -0.13668524      -0.16015942       0.40720001
10
Lattice="3.940949890606662 0.0 0.0 0.0 3.940949890606662 0.0 0.0 0.0 26.940967945119528" Properties=species:S:1:pos:R:3:forces:R:3 tau=tau24 tau_p=2 tau_q=4 stage=B constraint=xy_fixed_z_free force_label=raw_dft energy=-15499.213972457352 free_energy=-15499.213972457352 stress="0.009579138399375879 0.0002543296594102481 0.003042774336770983 0.0002543296594102481 0.007271808312379657 0.0019841386064460152 0.003042774336770983 0.0019841386064460152 -0.0024266905769721506" pbc="T T T"
Sr       0.00003612       0.00009431      10.57190358      -0.00928914      -0.00512189      -0.54772134
Sr       0.78809198       1.57636594      15.11876920      -0.34981247      -0.07997288      -0.05976632
Ti       1.97047269       1.97057450      11.96285114       0.23853718       0.17141493       0.14097616
Ti       2.75839074       3.54679074      16.52433083      -0.00938016      -0.02856984       0.35194726
O        0.00000902       1.97050521      12.27871859       0.38681424      -0.16475475      -0.57291840
O        0.78837796       3.54685853      16.70388958       0.00684685      -0.00138402      -0.19197630
O        1.97049401       3.94093312      11.96934291      -0.17928405       0.19246276       0.34386782
O        2.75876140       1.57638437      16.69217062       0.03188631       0.00562737      -0.17500574
O        1.97043419       1.97038596      10.14709736       0.02727349       0.03874113       0.24458416
O        2.75873155       3.54680681      14.70624616      -0.14359200      -0.12844280       0.46601245
10
Lattice="3.940949890606662 0.0 0.0 0.0 3.940949890606662 0.0 0.0 0.0 26.940967945119528" Properties=species:S:1:pos:R:3:forces:R:3 tau=tau24 tau_p=2 tau_q=4 stage=B constraint=xy_fixed_z_free force_label=raw_dft energy=-15499.258821307842 free_energy=-15499.258821307842 stress="0.012617321948070866 0.000180877050194292 0.002985848564628617 0.000180877050194292 0.009825204640249332 0.0018289699694773076 0.002985848564628617 0.0018289699694773076 0.00017444994688789583" pbc="T T T"
Sr       0.00003612       0.00009431      10.49532737      -0.00551630      -0.00338229      -0.25848431
Sr       0.78809198       1.57636594      15.13156318      -0.32729835      -0.07536726       0.18571001
Ti       1.97047269       1.97057450      11.92618448       0.21998873       0.15945622       0.09486548
Ti       2.75839074       3.54679074      16.58519487      -0.01107168      -0.02769181       0.20304284
O        0.00000902       1.97050521      12.23507657       0.35529920      -0.14753838      -0.57710519
O        0.78837796       3.54685853      16.75886238       0.00656223      -0.00053762      -0.26259551
O        1.97049401       3.94093312      11.93277955      -0.15286108       0.16751303       0.27423052
O        2.75876140       1.57638437      16.75038373       0.02810113       0.00483136      -0.26023421
O        1.97043419       1.97038596      10.10346446       0.02424653       0.03374419       0.19447130
O        2.75873155       3.54680681      14.75648337      -0.13745040      -0.11102743       0.40609906
10
Lattice="3.940949890606662 0.0 0.0 0.0 3.940949890606662 0.0 0.0 0.0 26.940967945119528" Properties=species:S:1:pos:R:3:forces:R:3 tau=tau24 tau_p=2 tau_q=4 stage=B constraint=xy_fixed_z_free force_label=raw_dft energy=-15499.292920845364 free_energy=-15499.292920845364 stress="0.014288368807733867 0.00011844233236072926 0.0028784241236502815 0.00011844233236072926 0.011640402245498649 0.0017343997351117644 0.0028784241236502815 0.0017343997351117644 0.0012450217262104566" pbc="T T T"
Sr       0.00003612       0.00009431      10.42697687      -0.00253125      -0.00169796       0.04118136
Sr       0.78809198       1.57636594      15.14781217      -0.30596822      -0.07430848       0.34348627
Ti       1.97047269       1.97057450      11.89988438       0.20672518       0.14923248      -0.01409942
Ti       2.75839074       3.54679074      16.63996692      -0.01159696      -0.02683615       0.01057366
O        0.00000902       1.97050521      12.18259941       0.31997790      -0.13024849      -0.47543451
O        0.78837796       3.54685853      16.79551278       0.00595647       0.00019695      -0.20056353
O        1.97049401       3.94093312      11.91126647      -0.13657134       0.15081834       0.19554294
O        2.75876140       1.57638437      16.78968930       0.02529246       0.00410297      -0.21115879
O        1.97043419       1.97038596      10.07308894       0.02279643       0.02961705       0.06654169
O        2.75873155       3.54680681      14.80852272      -0.12408041      -0.10087672       0.24393033
10
Lattice="3.940949890606662 0.0 0.0 0.0 3.940949890606662 0.0 0.0 0.0 26.940967945119528" Properties=species:S:1:pos:R:3:forces:R:3 tau=tau24 tau_p=2 tau_q=4 stage=B constraint=xy_fixed_z_free force_label=raw_dft energy=-15499.314109397581 free_energy=-15499.314109397581 stress="0.014129527540304363 8.906128867434682e-05 0.0027370278509095654 8.906128867434682e-05 0.01209029947694638 0.0016774739629693983 0.0027370278509095654 0.0016774739629693983 0.0007712523967675393" pbc="T T T"
Sr       0.00003612       0.00009431      10.38878323      -0.00094874      -0.00091377       0.21073173
Sr       0.78809198       1.57636594      15.16929021      -0.28500781      -0.07401589       0.35551543
Ti       1.97047269       1.97057450      11.88457679       0.19507731       0.14012332      -0.09998892
Ti       2.75839074       3.54679074      16.67226328      -0.01059860      -0.02543952      -0.08603400
O        0.00000902       1.97050521      12.13654030       0.28988777      -0.11654862      -0.34298876
O        0.78837796       3.54685853      16.80932759       0.00534687       0.00083767      -0.07685619
O        1.97049401       3.94093312      11.90515077      -0.12911026       0.14203134       0.14765871
O        2.75876140       1.57638437      16.80465798       0.02346337       0.00360109      -0.09021410
O        1.97043419       1.97038596      10.05796824       0.02277226       0.02675670      -0.05497584
O        2.75873155       3.54680681      14.84676157      -0.11088242      -0.09643257       0.03715167
10
Lattice="3.940949890606662 0.0 0.0 0.0 3.940949890606662 0.0 0.0 0.0 26.940967945119528" Properties=species:S:1:pos:R:3:forces:R:3 tau=tau24 tau_p=2 tau_q=4 stage=B constraint=xy_fixed_z_free force_label=raw_dft energy=-15499.330496365059 free_energy=-15499.330496365059 stress="0.012845943194255529 7.253445160075668e-05 0.0025377876484112844 7.253445160075668e-05 0.011631220669346654 0.0016049395113686415 0.0025377876484112844 0.0016049395113686415 -0.0003140099043982125" pbc="T T T"
Sr       0.00003612       0.00009431      10.36757319      -0.00011313      -0.00063918       0.26156681
Sr       0.78809198       1.57636594      15.20155103      -0.25800120      -0.07207831       0.23516852
Ti       1.97047269       1.97057450      11.86831963       0.18129208       0.12948950      -0.14830869
Ti       2.75839074       3.54679074      16.69439632      -0.00943646      -0.02341375      -0.13345028
O        0.00000902       1.97050521      12.08975822       0.25916411      -0.10348999      -0.20304644
O        0.78837796       3.54685853      16.81632781       0.00454751       0.00139431       0.06915290
O        1.97049401       3.94093312      11.90320995      -0.12372483       0.13462322       0.12207906
O        2.75876140       1.57638437      16.81196923       0.02126225       0.00317686       0.05769838
O        1.97043419       1.97038596      10.04441836       0.02272444       0.02393748      -0.13507419
O        2.75873155       3.54680681      14.87779622      -0.09771478      -0.09299989      -0.12578685
10
Lattice="3.940949890606662 0.0 0.0 0.0 3.940949890606662 0.0 0.0 0.0 26.940967945119528" Properties=species:S:1:pos:R:3:forces:R:3 tau=tau24 tau_p=2 tau_q=4 stage=B constraint=xy_fixed_z_free force_label=raw_dft energy=-15499.3420444682 free_energy=-15499.3420444682 stress="0.011327310498715637 6.243471783356271e-05 0.002317429820763416 6.243471783356271e-05 0.010810387761358344 0.0015085329617726992 0.002317429820763416 0.0015085329617726992 -0.001150451491844913" pbc="T T T"
Sr       0.00003612       0.00009431      10.35513133       0.00011056      -0.00060678       0.20833546
Sr       0.78809198       1.57636594      15.23948162      -0.22853508      -0.06799231       0.05950998
Ti       1.97047269       1.97057450      11.84551757       0.16569269       0.11785783      -0.14471248
Ti       2.75839074       3.54679074      16.71187771      -0.00838925      -0.02127099      -0.11605574
O        0.00000902       1.97050521      12.04582622       0.23083827      -0.09177090      -0.10008842
O        0.78837796       3.54685853      16.82889907       0.00381552       0.00169436       0.15958914
O        1.97049401       3.94093312      11.89746219      -0.11762077       0.12660395       0.10645036
O        2.75876140       1.57638437      16.82451302       0.01869989       0.00298042       0.15150457
O        1.97043419       1.97038596      10.02462252       0.02185386       0.02112650      -0.14002742
O        2.75873155       3.54680681      14.90198873      -0.08646594      -0.08862207      -0.18450545
10
Lattice="3.940949890606662 0.0 0.0 0.0 3.940949890606662 0.0 0.0 0.0 26.940967945119528" Properties=species:S:1:pos:R:3:forces:R:3 tau=tau24 tau_p=2 tau_q=4 stage=B constraint=xy_fixed_z_free force_label=raw_dft energy=-15499.351135927605 free_energy=-15499.351135927605 stress="0.01019889478963551 5.32531416815682e-05 0.002086972259348354 5.32531416815682e-05 0.01019889478963551 0.0013891724717967704 0.002086972259348354 0.0013891724717967704 -0.001282666188433634" pbc="T T T"
Sr       0.00003612       0.00009431      10.33881785       0.00012033      -0.00060472       0.10924694
Sr       0.78809198       1.57636594      15.28076238      -0.19825674      -0.06254491      -0.08198168
Ti       1.97047269       1.97057450      11.81176280       0.14885042       0.10527099      -0.09678044
Ti       2.75839074       3.54679074      16.73414253      -0.00746700      -0.01892718      -0.05726515
O        0.00000902       1.97050521      11.99946888       0.20339740      -0.08040405      -0.03976134
O        0.78837796       3.54685853      16.85601709       0.00317094       0.00182651       0.16470230
O        1.97049401       3.94093312      11.88311800      -0.10924155       0.11669492       0.08010838
O        2.75876140       1.57638437      16.85179332       0.01575315       0.00278193       0.15935415
O        1.97043419       1.97038596       9.99294053       0.02015539       0.01815610      -0.08787131
O        2.75873155       3.54680681      14.92649658      -0.07648261      -0.08224933      -0.14975185
10
Lattice="3.940949890606662 0.0 0.0 0.0 3.940949890606662 0.0 0.0 0.0 26.940967945119528" Properties=species:S:1:pos:R:3:forces:R:3 tau=tau24 tau_p=2 tau_q=4 stage=B constraint=xy_fixed_z_free force_label=raw_dft energy=-15499.356947054686 free_energy=-15499.356947054686 stress="0.009903248037541286 4.498972314477313e-05 0.001906095209154062 4.498972314477313e-05 0.010208994523402704 0.001282666188433634 0.001906095209154062 0.001282666188433634 -0.0006353650697180206" pbc="T T T"
Sr       0.00003612       0.00009431      10.31692627       0.00002623      -0.00058364       0.02728455
Sr       0.78809198       1.57636594      15.31439670      -0.17486664      -0.05772255      -0.11840958
Ti       1.97047269       1.97057450      11.77494335       0.13504437       0.09455335      -0.04191464
Ti       2.75839074       3.54679074      16.76020013      -0.00631617      -0.01612185       0.00605341
O        0.00000902       1.97050521      11.95750796       0.18167518      -0.07145841      -0.02151062
O        0.78837796       3.54685853      16.89251652       0.00269503       0.00169461       0.09272504
O        1.97049401       3.94093312      11.86360824      -0.10081913       0.10723711       0.04219463
O        2.75876140       1.57638437      16.88877463       0.01332269       0.00249834       0.08807725
O        1.97043419       1.97038596       9.95660963       0.01825432       0.01562202      -0.01615964
O        2.75873155       3.54680681      14.94983653      -0.06901561      -0.07571925      -0.05834064
10
Lattice="3.940949890606662 0.0 0.0 0.0 3.940949890606662 0.0 0.0 0.0 26.940967945119528" Properties=species:S:1:pos:R:3:forces:R:3 tau=tau24 tau_p=2 tau_q=4 stage=B constraint=xy_fixed_z_free force_label=raw_dft energy=-15499.358759741024 free_energy=-15499.358759741024 stress="0.010191549528713914 3.9480777453576426e-05 0.0018179520780949143 3.9480777453576426e-05 0.01063410149924005 0.0012266585739064675 0.0018179520780949143 0.0012266585739064675 7.069813637035779e-05" pbc="T T T"
Sr       0.00003612       0.00009431      10.29831419       0.00007996      -0.00055587       0.00892096
Sr       0.78809198       1.57636594      15.32982861      -0.16377027      -0.05536279      -0.07303244
Ti       1.97047269       1.97057450      11.75152604       0.12815304       0.08947233      -0.00523142
Ti       2.75839074       3.54679074      16.78013373      -0.00602667      -0.01536568       0.02513768
O        0.00000902       1.97050521      11.93214570       0.17049885      -0.06673041      -0.02415603
O        0.78837796       3.54685853      16.91907499       0.00252637       0.00170953       0.02309725
O        1.97049401       3.94093312      11.84968516      -0.09576125       0.10181491       0.00985838
O        2.75876140       1.57638437      16.91581441       0.01215463       0.00239704       0.01765422
O        1.97043419       1.97038596       9.93300948       0.01726059       0.01430639       0.01464500
O        2.75873155       3.54680681      14.96578766      -0.06511550      -0.07168544       0.00310641
10
Lattice="3.940949890606662 0.0 0.0 0.0 3.940949890606662 0.0 0.0 0.0 26.940967945119528" Properties=species:S:1:pos:R:3:forces:R:3 tau=tau24 tau_p=2 tau_q=4 stage=B constraint=xy_fixed_z_free force_label=raw_dft energy=-15499.359018521285 free_energy=-15499.359018521285 stress="0.010395380519288193 3.764446222317752e-05 0.0018078523443277204 3.764446222317752e-05 0.010881085897728703 0.0012211496282152708 0.0018078523443277204 0.0012211496282152708 0.00028003807263583276" pbc="T T T"
Sr       0.00003612       0.00009431      10.29328326       0.00013267      -0.00051165       0.01698111
Sr       0.78809198       1.57636594      15.33007874      -0.16254643      -0.05526689      -0.03571854
Ti       1.97047269       1.97057450      11.74724715       0.12748429       0.08888741       0.00001311
Ti       2.75839074       3.54679074      16.78550910      -0.00612308      -0.01553075       0.01655868
O        0.00000902       1.97050521      11.92665616       0.16875436      -0.06592668      -0.02252826
O        0.78837796       3.54685853      16.92514438       0.00252071       0.00175015       0.00421301
O        1.97049401       3.94093312      11.84708275      -0.09502077       0.10106132       0.00144393
O        2.75876140       1.57638437      16.92194445       0.01200782       0.00238187      -0.00145293
O        1.97043419       1.97038596       9.92871416       0.01716520       0.01413335       0.01089016
O        2.75873155       3.54680681      14.96965982      -0.06437451      -0.07097787       0.00959998
10
Lattice="3.940949890606662 0.0 0.0 0.0 3.940949890606662 0.0 0.0 0.0 26.940967945119528" Properties=species:S:1:pos:R:3:forces:R:3 tau=tau24 tau_p=2 tau_q=4 stage=B constraint=xy_fixed_z_free force_label=raw_dft energy=-15499.359116074094 free_energy=-15499.359116074094 stress="0.01046607865565855 3.672630460797807e-05 0.0018124431324037177 3.672630460797807e-05 0.010988510338707038 0.0012266585739064675 0.0018124431324037177 0.0012266585739064675 0.0003039101706310185" pbc="T T T"
Sr       0.00003612       0.00009431      10.29342706       0.00013010      -0.00052528       0.01997644
Sr       0.78809198       1.57636594      15.32726836      -0.16334913      -0.05567235      -0.01220297
Ti       1.97047269       1.97057450      11.74784977       0.12808362       0.08922782      -0.00163008
Ti       2.75839074       3.54679074      16.78617729      -0.00616422      -0.01565828       0.00669875
O        0.00000902       1.97050521      11.92600648       0.16912639      -0.06604573      -0.01598223
O        0.78837796       3.54685853      16.92534146       0.00254205       0.00176763       0.00003034
O        1.97049401       3.94093312      11.84796486      -0.09547457       0.10153184       0.00042063
O        2.75876140       1.57638437      16.92197846       0.01208444       0.00237596      -0.00514889
O        1.97043419       1.97038596       9.92954209       0.01729607       0.01419403       0.00314857
O        2.75873155       3.54680681      14.96976412      -0.06427501      -0.07119590       0.00468918
