10
Lattice="3.940949890606662 0.0 0.0 0.0 3.940949890606662 0.0 0.0 0.0 26.940967945119528" Properties=species:S:1:pos:R:3:forces:R:3 tau=tau15 tau_p=1 tau_q=5 stage=B constraint=xy_fixed_z_free force_label=raw_dft energy=-15497.11313226016 free_energy=-15497.11313226016 stress="0.004629350695835636 -0.0 -0.0007088176789339768 -0.0 0.02206791828131882 1.8363152303989035e-06 -0.0007088176789339768 1.8363152303989035e-06 -0.03505066696023907" pbc="T T T"
Sr       0.00003626       0.00009419      10.75260867      -0.00935033      -0.00007842       0.35693185
Sr       0.39399686       1.97046076      14.64522241      -0.60802913      -0.00021932       5.12621432
Ti       1.97047258       1.97057465      12.38212169       0.95133054       0.00090349      -3.06980410
Ti       2.36429564       3.94088565      16.28444791       0.05782437       0.00006145       0.20706868
O        0.00000906       1.97050529      12.45001441      -0.20375298      -0.00016609      -1.55806795
O        0.39428297       0.00000355      16.39256827       0.00315423       0.00000437      -0.09052880
O        1.97049386       3.94093294      12.44909065      -0.92477901      -0.00061732      -3.65410658
O        2.36466649       1.97047928      16.37955485       0.10230137      -0.00007019      -0.28473553
O        1.97043435       1.97038588      10.49176941       0.05624057       0.00019926       0.34354489
O        2.36463654       3.94090181      14.44792112       0.57506039      -0.00001697       2.62348296
10
Lattice="3.940949890606662 0.0 0.0 0.0 3.940949890606662 0.0 0.0 0.0 26.940967945119528" Properties=species:S:1:pos:R:3:forces:R:3 tau=tau15 tau_p=1 tau_q=5 stage=B constraint=xy_fixed_z_free force_label=raw_dft energy=-15498.047064914306 free_energy=-15498.047064914306 stress="0.0029638127818638303 -0.0 0.0005775211399604551 -0.0 0.015714267584138616 1.8363152303989035e-06 0.0005775211399604551 1.8363152303989035e-06 -0.03218417888558638" pbc="T T T"
Sr       0.00003612       0.00009431      10.75995498      -0.01026719      -0.00008639       0.33541275
Sr       0.39399699       1.97046093      14.75072900      -0.55590798      -0.00017638       3.05468961
Ti       1.97047269       1.97057450      12.31894012       0.65727450       0.00065332      -1.51408588
Ti       2.36429575       3.94088573      16.28870975       0.03819091       0.00011956       0.74137348
O        0.00000902       1.97050521      12.41794675       0.03934559      -0.00017304      -0.58453310
O        0.39428297       0.00000361      16.39070509       0.00153083      -0.00000746       0.15569161
O        1.97049401       3.94093312      12.37388284      -0.63978123      -0.00042963      -2.47647525
O        2.36466641       1.97047936      16.37369446       0.08644152      -0.00013190       0.02561076
O        1.97043419       1.97038596      10.49884013       0.05522498       0.00021906      -0.64370396
O        2.36463656       3.94090180      14.50191684       0.32794832       0.00001311       0.90601999
10
Lattice="3.940949890606662 0.0 0.0 0.0 3.940949890606662 0.0 0.0 0.0 26.940967945119528" Properties=species:S:1:pos:R:3:forces:R:3 tau=tau15 tau_p=1 tau_q=5 stage=B constraint=xy_fixed_z_free force_label=raw_dft energy=-15498.592556832513 free_energy=-15498.592556832513 stress="0.00020474914818947773 -0.0 0.0013588732704951886 -0.0 0.008965809112422646 1.8363152303989035e-06 0.0013588732704951886 1.8363152303989035e-06 -0.02848767632679339" pbc="T T T"
Sr       0.00003612       0.00009431      10.77220321      -0.01177642      -0.00010362       0.01095496
Sr       0.39399699       1.97046093      14.86678593      -0.47438216      -0.00014527       1.19369712
Ti       1.97047269       1.97057450      12.26014369       0.45398328       0.00044094      -0.49283908
Ti       2.36429575       3.94088573      16.31438343       0.02444245       0.00018898       0.41976344
O        0.00000902       1.97050521      12.39435099       0.17249994      -0.00015864       0.00312235
O        0.39428297       0.00000361      16.39577447      -0.00000771      -0.00003034       0.56945487
O        1.97049401       3.94093312      12.28100043      -0.43463882      -0.00030030      -1.37354707
O        2.36466641       1.97047936      16.37387959       0.06723898      -0.00017329       0.51379049
O        1.97043419       1.97038596      10.47780695       0.04964440       0.00023911      -1.15348121
O        2.36463656       3.94090180      14.53899127       0.15299606       0.00004242       0.30908440
10
Lattice="3.940949890606662 0.0 0.0 0.0 3.940949890606662 0.0 0.0 0.0 26.940967945119528" Properties=species:S:1:pos:R:3:forces:R:3 tau=tau15 tau_p=1 tau_q=5 stage=B constraint=xy_fixed_z_free force_label=raw_dft energy=-15498.840296618297 free_energy=-15498.840296618297 stress="-0.002585531844401656 0.0 0.001719709213268573 0.0 0.003367802132551589 1.8363152303989035e-06 0.001719709213268573 1.8363152303989035e-06 -0.02392076034879131" pbc="T T T"
Sr       0.00003612       0.00009431      10.77825957      -0.01245160      -0.00011724      -0.52546972
Sr       0.39399699       1.97046093      14.97040123      -0.39450467      -0.00013524      -0.13625535
Ti       1.97047269       1.97057450      12.21048578       0.33222612       0.00028642      -0.45551052
Ti       2.36429575       3.94088573      16.34046050       0.01358314       0.00023166       0.24464304
O        0.00000902       1.97050521      12.38104532       0.22567884      -0.00013575       0.27835868
O        0.39428297       0.00000361      16.41889342       0.00036998      -0.00004577       0.85406905
O        1.97049401       3.94093312      12.18361386      -0.29904501      -0.00026020      -0.36015139
O        2.36466641       1.97047936      16.39249627       0.05197896      -0.00019643       0.86644325
O        1.97043419       1.97038596      10.42740729       0.03999145       0.00031625      -0.77914967
O        2.36463656       3.94090180      14.57225672       0.04217278       0.00005605       0.01302264
10
Lattice="3.940949890606662 0.0 0.0 0.0 3.940949890606662 0.0 0.0 0.0 26.940967945119528" Properties=species:S:1:pos:R:3:forces:R:3 tau=tau15 tau_p=1 tau_q=5 stage=B constraint=xy_fixed_z_free force_label=raw_dft energy=-15498.941913041464 free_energy=-15498.941913041464 stress="-0.0027719178402871446 0.0 0.0017894891920237316 0.0 0.001627893451748628 1.8363152303989035e-06 0.0017894891920237316 1.8363152303989035e-06 -0.02108089884497941" pbc="T T T"
Sr       0.00003612       0.00009431      10.76628932      -0.01231584      -0.00011133      -0.74251505
Sr       0.39399699       1.97046093      15.01799232      -0.34952785      -0.00013395      -0.54759664
Ti       1.97047269       1.97057450      12.17099906       0.27925394       0.00022497      -0.27822499
Ti       2.36429575       3.94088573      16.35890473       0.00860985       0.00024143       0.28891306
O        0.00000902       1.97050521      12.38055950       0.23847676      -0.00012933       0.18804406
O        0.39428297       0.00000361      16.45196320       0.00107086      -0.00005682       0.82332225
O        1.97049401       3.94093312      12.12764504      -0.24190327      -0.00023963       0.03802430
O        2.36466641       1.97047936      16.42374583       0.04427517      -0.00018872       0.86633912
O        1.97043419       1.97038596      10.38669341       0.03370562       0.00033501      -0.59127454
O        2.36463656       3.94090180      14.59052755      -0.00164551       0.00005862      -0.04503159
10
Lattice="3.940949890606662 0.0 0.0 0.0 3.940949890606662 0.0 0.0 0.0 26.940967945119528" Properties=species:S:1:pos:R:3:forces:R:3 tau=tau15 tau_p=1 tau_q=5 stage=B constraint=xy_fixed_z_free force_label=raw_dft energy=-15499.059583500828 free_energy=-15499.059583500828 stress="-0.001008137061488998 0.0 0.0018271336542469087 0.0 0.0016242208212878298 1.8363152303989035e-06 0.0018271336542469087 1.8363152303989035e-06 -0.016516737339822934" pbc="T T T"
Sr       0.00003612       0.00009431      10.73341195      -0.01166715      -0.00009796      -0.86193174
Sr       0.39399699       1.97046093      15.05920531      -0.30740135      -0.00013601      -0.69898370
Ti       1.97047269       1.97057450      12.11983456       0.23341709       0.00017921      -0.08780652
Ti       2.36429575       3.94088573      16.38772754       0.00517846       0.00023037       0.36916233
O        0.00000902       1.97050521      12.38190921       0.24592730      -0.00013858      -0.05651516
O        0.39428297       0.00000361      16.50816426       0.00193553      -0.00005219       0.61454893
O        1.97049401       3.94093312      12.06607934      -0.19141092      -0.00024888       0.31478942
O        2.36466641       1.97047936      16.47905684       0.03660711      -0.00016018       0.67822796
O        1.97043419       1.97038596      10.32836303       0.02654253       0.00036947      -0.31146935
O        2.36463656       3.94090180      14.61156793      -0.03912833       0.00005476       0.03997808
10
Lattice="3.940949890606662 0.0 0.0 0.0 3.940949890606662 0.0 0.0 0.0 26.940967945119528" Properties=species:S:1:pos:R:3:forces:R:3 tau=tau15 tau_p=1 tau_q=5 stage=B constraint=xy_fixed_z_free force_label=raw_dft energy=-15499.183951089932 free_energy=-15499.183951089932 stress="0.0037313925481705715 -0.0 0.0018528420674724935 -0.0 0.003992149310887216 1.8363152303989035e-06 0.0018528420674724935 1.8363152303989035e-06 -0.009269719283053665" pbc="T T T"
Sr       0.00003612       0.00009431      10.66294501      -0.00922795      -0.00007996      -0.80801056
Sr       0.39399699       1.97046093      15.09492227      -0.26698824      -0.00013627      -0.55173303
Ti       1.97047269       1.97057450      12.04965148       0.18895860       0.00014810       0.14654054
Ti       2.36429575       3.94088573      16.43855766       0.00226077       0.00018075       0.45800886
O        0.00000902       1.97050521      12.37896015       0.24791219      -0.00015452      -0.46209434
O        0.39428297       0.00000361      16.59973172       0.00304264      -0.00003908       0.19356962
O        1.97049401       3.94093312      11.99323000      -0.14287260      -0.00025582       0.42792593
O        2.36466641       1.97047936      16.57140539       0.02888660      -0.00010490       0.26221421
O        1.97043419       1.97038596      10.24269104       0.01889504       0.00038978       0.05626936
O        2.36463656       3.94090180      14.64322524      -0.07086655       0.00005168       0.27730916
10
Lattice="3.940949890606662 0.0 0.0 0.0 3.940949890606662 0.0 0.0 0.0 26.940967945119528" Properties=species:S:1:pos:R:3:forces:R:3 tau=tau15 tau_p=1 tau_q=5 stage=B constraint=xy_fixed_z_free force_label=raw_dft energy=-15499.246456455014 free_energy=-15499.246456455014 stress="0.007835557088112122 0.0 0.0018849775840044745 0.0 0.00689995447822388 1.8363152303989035e-06 0.0018849775840044745 1.8363152303989035e-06 -0.004711066723588387" pbc="T T T"
Sr       0.00003612       0.00009431      10.60154971      -0.00719035      -0.00006736      -0.58904873
Sr       0.39399699       1.97046093      15.09940833      -0.25504058      -0.00013601      -0.27411456
Ti       1.97047269       1.97057450      12.01442732       0.17558552       0.00015247       0.18472065
Ti       2.36429575       3.94088573      16.47946028       0.00080013       0.00014115       0.43618379
O        0.00000902       1.97050521      12.36572528       0.24441447      -0.00016918      -0.63952874
O        0.39428297       0.00000361      16.65739769       0.00342060      -0.00002854      -0.06264287
O        1.97049401       3.94093312      11.96334057      -0.12391869      -0.00026354       0.32815684
O        2.36466641       1.97047936      16.63134469       0.02559919      -0.00006788      -0.00824938
O        1.97043419       1.97038596      10.19437913       0.01615218       0.00039698       0.21701011
O        2.36463656       3.94090180      14.66828696      -0.07982273       0.00004217       0.40751291
10
Lattice="3.940949890606662 0.0 0.0 0.0 3.940949890606662 0.0 0.0 0.0 26.940967945119528" Properties=species:S:1:pos:R:3:forces:R:3 tau=tau15 tau_p=1 tau_q=5 stage=B constraint=xy_fixed_z_free force_label=raw_dft energy=-15499.299433209806 free_energy=-15499.299433209806 stress="0.011794652724852157 0.0 0.0019336399376100454 0.0 0.01028061081738826 1.8363152303989035e-06 0.0019336399376100454 1.8363152303989035e-06 -0.0010769988826289567" pbc="T T T"
Sr       0.00003612       0.00009431      10.53154393      -0.00471977      -0.00006016      -0.23790623
Sr       0.39399699       1.97046093      15.09213440      -0.25218074      -0.00012778       0.06327819
Ti       1.97047269       1.97057450      11.99106605       0.17168207       0.00018075       0.10248160
Ti       2.36429575       3.94088573      16.52718669      -0.00053299       0.00009205       0.28652348
O        0.00000902       1.97050521      12.33644653       0.23672790      -0.00018409      -0.66222901
O        0.39428297       0.00000361      16.70552195       0.00366922      -0.00002005      -0.21021905
O        1.97049401       3.94093312      11.94911200      -0.11248551      -0.00026997       0.15183855
O        2.36466641       1.97047936      16.68311967       0.02361275      -0.00004011      -0.17968951
O        1.97043419       1.97038596      10.15854604       0.01507849       0.00038927       0.24462195
O        2.36463656       3.94090180      14.70064271      -0.08085142       0.00004011       0.44130003
10
Lattice="3.940949890606662 0.0 0.0 0.0 3.940949890606662 0.0 0.0 0.0 26.940967945119528" Properties=species:S:1:pos:R:3:forces:R:3 tau=tau15 tau_p=1 tau_q=5 stage=B constraint=xy_fixed_z_free force_label=raw_dft energy=-15499.331373660074 free_energy=-15499.331373660074 stress="0.013696157145930222 0.0 0.0019602665084508296 0.0 0.012383191756195004 1.8363152303989035e-06 0.0019602665084508296 1.8363152303989035e-06 0.00038103541030777246" pbc="T T T"
Sr       0.00003612       0.00009431      10.48088430      -0.00304033      -0.00005579       0.05371523
Sr       0.39399699       1.97046093      15.08683897      -0.25187195      -0.00012598       0.27672758
Ti       1.97047269       1.97057450      11.98072951       0.17179006       0.00018949      -0.03820762
Ti       2.36429575       3.94088573      16.56514407      -0.00151027       0.00007430       0.10441687
O        0.00000902       1.97050521      12.29966548       0.22681578      -0.00019618      -0.54310466
O        0.39428297       0.00000361      16.72980852       0.00375972      -0.00001003      -0.20051031
O        1.97049401       3.94093312      11.94655064      -0.10727542      -0.00026765       0.04136571
O        2.36466641       1.97047936      16.71068350       0.02258303      -0.00003317      -0.18928410
O        1.97043419       1.97038596      10.14275747       0.01529986       0.00038052       0.14950142
O        2.36463656       3.94090180      14.73225750      -0.07655074       0.00004474       0.34537963
10
Lattice="3.940949890606662 0.0 0.0 0.0 3.940949890606662 0.0 0.0 0.0 26.940967945119528" Properties=species:S:1:pos:R:3:forces:R:3 tau=tau15 tau_p=1 tau_q=5 stage=B constraint=xy_fixed_z_free force_label=raw_dft energy=-15499.352722351285 free_energy=-15499.352722351285 stress="0.013949568647725268 0.0 0.0019400670409164414 0.0 0.013122308636430564 1.8363152303989035e-06 0.0019400670409164414 1.8363152303989035e-06 0.0004278614486829445" pbc="T T T"
Sr       0.00003612       0.00009431      10.44907333      -0.00194607      -0.00005142       0.22687131
Sr       0.39399699       1.97046093      15.09346086      -0.24570439      -0.00012161       0.34473865
Ti       1.97047269       1.97057450      11.97153567       0.16701346       0.00018795      -0.14551878
Ti       2.36429575       3.94088573      16.59412795      -0.00195944       0.00006762      -0.03630475
O        0.00000902       1.97050521      12.25981935       0.21500542      -0.00020260      -0.38008155
O        0.39428297       0.00000361      16.74118595       0.00366434      -0.00000437      -0.11001750
O        1.97049401       3.94093312      11.94406605      -0.10301588      -0.00025737       0.01711301
O        2.36466641       1.97047936      16.72446634       0.02162915      -0.00004217      -0.10938398
O        1.97043419       1.97038596      10.13462633       0.01581588       0.00037435       0.00988975
O        2.36463656       3.94090180      14.76295814      -0.07050273       0.00004937       0.18269385
10
Lattice="3.940949890606662 0.0 0.0 0.0 3.940949890606662 0.0 0.0 0.0 26.940967945119528" Properties=species:S:1:pos:R:3:forces:R:3 tau=tau15 tau_p=1 tau_q=5 stage=B constraint=xy_fixed_z_free force_label=raw_dft energy=-15499.371070171082 free_energy=-15499.371070171082 stress="0.013131490212582558 0.0 0.001855596540318092 0.0 0.012802789786341156 1.8363152303989035e-06 0.001855596540318092 1.8363152303989035e-06 -0.00027728359979023443" pbc="T T T"
Sr       0.00003612       0.00009431      10.42773821      -0.00128324      -0.00005296       0.28734160
Sr       0.39399699       1.97046093      15.11625851      -0.22921745      -0.00011724       0.29035622
Ti       1.97047269       1.97057450      11.95469963       0.15427313       0.00016764      -0.19203390
Ti       2.36429575       3.94088573      16.62040890      -0.00183500       0.00007508      -0.11441383
O        0.00000902       1.97050521      12.21419313       0.19946644      -0.00020106      -0.21714432
O        0.39428297       0.00000361      16.75110944       0.00331981      -0.00000489       0.01103183
O        1.97049401       3.94093312      11.93544959      -0.09698047      -0.00023577       0.05342470
O        2.36466641       1.97047936      16.73620073       0.02007055      -0.00005785       0.00837434
O        1.97043419       1.97038596      10.12304728       0.01594367       0.00037050      -0.12104239
O        2.36463656       3.94090180      14.79621454      -0.06375770       0.00005656      -0.00589400
10
Lattice="3.940949890606662 0.0 0.0 0.0 3.940949890606662 0.0 0.0 0.0 26.940967945119528" Properties=species:S:1:pos:R:3:forces:R:3 tau=tau15 tau_p=1 tau_q=5 stage=B constraint=xy_fixed_z_free force_label=raw_dft energy=-15499.386591816554 free_energy=-15499.386591816554 stress="0.011781798518239364 -0.0 0.0017123639523469773 -0.0 0.011793734567236957 1.8363152303989035e-06 0.0017123639523469773 1.8363152303989035e-06 -0.0011045436110849404" pbc="T T T"
Sr       0.00003612       0.00009431      10.41274364      -0.00093357      -0.00005656       0.23204617
Sr       0.39399699       1.97046093      15.15394354      -0.20358792      -0.00011519       0.14659196
Ti       1.97047269       1.97057450      11.92651493       0.13557530       0.00013035      -0.17197132
Ti       2.36429575       3.94088573      16.64576962      -0.00159743       0.00008536      -0.11537234
O        0.00000902       1.97050521      12.16571936       0.18094241      -0.00019463      -0.09846554
O        0.39428297       0.00000361      16.76721838       0.00278296      -0.00000797       0.11001159
O        1.97049401       3.94093312      11.91887722      -0.08892186      -0.00020183       0.11441795
O        2.36466641       1.97047936      16.75362763       0.01772287      -0.00007353       0.10983933
O        1.97043419       1.97038596      10.10126497       0.01531041       0.00036895      -0.18286200
O        2.36463656       3.94090180      14.82964068      -0.05729343       0.00006531      -0.14423580
10
Lattice="3.940949890606662 0.0 0.0 0.0 3.940949890606662 0.0 0.0 0.0 26.940967945119528" Properties=species:S:1:pos:R:3:forces:R:3 tau=tau15 tau_p=1 tau_q=5 stage=B constraint=xy_fixed_z_free force_label=raw_dft energy=-15499.3980328429 free_energy=-15499.3980328429 stress="0.0107158175269928 0.0 0.0015480137392262757 0.0 0.010887513001035099 1.8363152303989035e-06 0.0015480137392262757 1.8363152303989035e-06 -0.0012652211937448444" pbc="T T T"
Sr       0.00003612       0.00009431      10.39575508      -0.00070320      -0.00006145       0.12159647
Sr       0.39399699       1.97046093      15.19753999      -0.17580304      -0.00012084       0.00534018
Ti       1.97047269       1.97057450      11.88817506       0.11712969       0.00008665      -0.10990695
Ti       2.36429575       3.94088573      16.67330296      -0.00192961       0.00010696      -0.07621058
O        0.00000902       1.97050521      12.11766763       0.16198670      -0.00018718      -0.04756207
O        0.39428297       0.00000361      16.79519277       0.00223763      -0.00000874       0.13910157
O        1.97049401       3.94093312      11.89667685      -0.08012714      -0.00016969       0.14888127
O        2.36466641       1.97047936      16.78285060       0.01494891      -0.00008382       0.14224962
O        1.97043419       1.97038596      10.06696947       0.01403951       0.00036895      -0.15243531
O        2.36463656       3.94090180      14.86118955      -0.05177945       0.00006891      -0.17105421
10
Lattice="3.940949890606662 0.0 0.0 0.0 3.940949890606662 0.0 0.0 0.0 26.940967945119528" Properties=species:S:1:pos:R:3:forces:R:3 tau=tau15 tau_p=1 tau_q=5 stage=B constraint=xy_fixed_z_free force_label=raw_dft energy=-15499.405079230752 free_energy=-15499.405079230752 stress="0.010305401072998646 -0.0 0.0014029448360247622 -0.0 0.01060012966747767 1.8363152303989035e-06 0.0014029448360247622 1.8363152303989035e-06 -0.0006629097981740042" pbc="T T T"
Sr       0.00003612       0.00009431      10.37325356      -0.00053762      -0.00006711       0.03431806
Sr       0.39399699       1.97046093      15.23627955      -0.15229261      -0.00011750      -0.05837510
Ti       1.97047269       1.97057450      11.84710731       0.10246849       0.00004551      -0.04646163
Ti       2.36429575       3.94088573      16.70262658      -0.00220035       0.00010490      -0.03346625
O        0.00000902       1.97050521      12.07220922       0.14503747      -0.00017921      -0.04316214
O        0.39428297       0.00000361      16.83145432       0.00176352      -0.00001028       0.09760242
O        1.97049401       3.94093312      11.87537030      -0.07257067      -0.00014115       0.12952369
O        2.36466641       1.97047936      16.82060692       0.01255650      -0.00007996       0.10130095
O        1.97043419       1.97038596      10.02678508       0.01269971       0.00038027      -0.06649798
O        2.36463656       3.94090180      14.88962712      -0.04692443       0.00006479      -0.11478202
10
Lattice="3.940949890606662 0.0 0.0 0.0 3.940949890606662 0.0 0.0 0.0 26.940967945119528" Properties=species:S:1:pos:R:3:forces:R:3 tau=tau15 tau_p=1 tau_q=5 stage=B constraint=xy_fixed_z_free force_label=raw_dft energy=-15499.40751111213 free_energy=-15499.40751111213 stress="0.010361408687525813 -0.0 0.0013239832811176094 -0.0 0.010839768805044727 1.8363152303989035e-06 0.0013239832811176094 1.8363152303989035e-06 7.345260921595614e-06" pbc="T T T"
Sr       0.00003612       0.00009431      10.35705624      -0.00046923      -0.00006813       0.00609660
Sr       0.39399699       1.97046093      15.25520147      -0.14057532      -0.00011878      -0.04917749
Ti       1.97047269       1.97057450      11.82249878       0.09534653       0.00002185      -0.00524171
Ti       2.36429575       3.94088573      16.72097213      -0.00210085       0.00010104      -0.00748937
O        0.00000902       1.97050521      12.04383373       0.13569100      -0.00017715      -0.04601709
O        0.39428297       0.00000361      16.85609496       0.00163599      -0.00000951       0.04125026
O        1.97049401       3.94093312      11.86623713      -0.06920381      -0.00012727       0.08090567
O        2.36466641       1.97047936      16.84641659       0.01145041      -0.00007045       0.04308552
O        1.97043419       1.97038596      10.00178017       0.01202402       0.00037898      -0.01021808
O        2.36463656       3.94090180      14.90522877      -0.04379849       0.00006916      -0.05319432
10
Lattice="3.940949890606662 0.0 0.0 0.0 3.940949890606662 0.0 0.0 0.0 26.940967945119528" Properties=species:S:1:pos:R:3:forces:R:3 tau=tau15 tau_p=1 tau_q=5 stage=B constraint=xy_fixed_z_free force_label=raw_dft energy=-15499.408208267783 free_energy=-15499.408208267783 stress="0.010439452084817766 -0.0 0.0013019474983528225 -0.0 0.011115216089604562 1.8363152303989035e-06 0.0013019474983528225 1.8363152303989035e-06 0.000313091746783013" pbc="T T T"
Sr       0.00003612       0.00009431      10.35241700      -0.00042346      -0.00006993       0.00710524
Sr       0.39399699       1.97046093      15.25788176      -0.13789212      -0.00011956      -0.02582930
Ti       1.97047269       1.97057450      11.81624232       0.09410726       0.00001928       0.00285110
Ti       2.36429575       3.94088573      16.72594720      -0.00192858       0.00010259      -0.00299199
O        0.00000902       1.97050521      12.03340200       0.13299237      -0.00017689      -0.03561492
O        0.39428297       0.00000361      16.86359848       0.00160231      -0.00000951       0.01266063
O        1.97049401       3.94093312      11.86779031      -0.06920073      -0.00012341       0.04485932
O        2.36466641       1.97047936      16.85443447       0.01116347      -0.00006736       0.01267554
O        1.97043419       1.97038596       9.99522761       0.01197131       0.00037924       0.00568471
O        2.36463656       3.94090180      14.90837880      -0.04239183       0.00006582      -0.02140032
10
Lattice="3.940949890606662 0.0 0.0 0.0 3.940949890606662 0.0 0.0 0.0 26.940967945119528" Properties=species:S:1:pos:R:3:forces:R:3 tau=tau15 tau_p=1 tau_q=5 stage=B constraint=xy_fixed_z_free force_label=raw_dft energy=-15499.408613989517 free_energy=-15499.408613989517 stress="0.010435779454356968 -0.0 0.001301029340737623 -0.0 0.011338328390098028 1.8363152303989035e-06 0.001301029340737623 1.8363152303989035e-06 0.0004030711930725593" pbc="T T T"
Sr       0.00003612       0.00009431      10.35434030      -0.00045303      -0.00006916       0.01181859
Sr       0.39399699       1.97046093      15.25397338      -0.13865677      -0.00011827      -0.00459096
Ti       1.97047269       1.97057450      11.81791294       0.09519972       0.00001723       0.00102021
Ti       2.36429575       3.94088573      16.72427430      -0.00184348       0.00009616      -0.00324010
O        0.00000902       1.97050521      12.03046747       0.13292938      -0.00017561      -0.01632265
O        0.39428297       0.00000361      16.86309160       0.00160463      -0.00000848      -0.00316194
O        1.97049401       3.94093312      11.87464257      -0.07073388      -0.00012161       0.01489157
O        2.36466641       1.97047936      16.85409976       0.01121772      -0.00006402      -0.00438167
O        1.97043419       1.97038596       9.99695601       0.01223305       0.00037795       0.00574256
O        2.36463656       3.94090180      14.90556164      -0.04149735       0.00006608      -0.00177560
