10
Lattice="3.940949890606662 0.0 0.0 0.0 3.940949890606662 0.0 0.0 0.0 26.940967945119528" Properties=species:S:1:pos:R:3:forces:R:3 tau=tau19 tau_p=1 tau_q=9 stage=A constraint=rigid_scf force_label=raw_dft energy=-15500.27206262872 free_energy=-15500.27206262872 stress="0.009465286855091149 -0.0003654267308493818 0.0067558037326375655 -0.0003654267308493818 0.009174230891072922 -0.00674937662933117 0.0067558037326375655 -0.00674937662933117 -0.0018776323230828785" pbc="T T T"
Sr       0.00003626       0.00009419      10.75260867      -0.00222580       0.00215818       0.09770372
Sr       0.39399686       3.54684071      14.64522241      -0.35259929       0.35278492       0.67540386
Ti       1.97047258       1.97057465      12.38212169       0.33991526      -0.34044774      -0.15367252
Ti       2.36429564       1.57631572      16.28444791      -0.04987349       0.04772173      -0.01352992
O        0.00000906       1.97050529      12.45001441       0.90678875       0.27254902      -0.29856755
O        0.39428297       1.57638350      16.39256827      -0.00890142       0.02022995      -0.03393342
O        1.97049386       3.94093294      12.44909065      -0.27291720      -0.90497123      -0.29596971
O        2.36466649       3.54685924      16.37955485      -0.02008392       0.01089582       0.00391142
O        1.97043435       1.97038588      10.49176941       0.16409037      -0.16349876       0.08191200
O        2.36463654       1.57633188      14.44792112      -0.70419353       0.70257759      -0.06325788
