Sr Ti O
 1.0000000000000000
     3.9409498906066620    0.0000000000000000    0.0000000000000000
     0.0000000000000000    3.9409498906066620    0.0000000000000000
     0.0000000000000000    0.0000000000000000   26.9409679451195281
 Sr  Ti  O
   2   2   6
Cartesian
 -0.0014761897809575  0.0000393268093417 10.2532953528873296
  0.7636651789172769  1.9704446278410896 15.3679064121475495
  1.9892701240083712  1.9705401722702200 11.7038147177484966
  2.7426385868028120  3.9409194620278818 16.8294328218026834
 -0.0010272632697460  1.9704722833195929 11.8821497437169619
  0.8060902252269850 -0.0000202514987827 16.9689762693026047
  1.9491111061424156  3.9409443062442255 11.8062694559425143
  2.7754475108915226  1.9704558604058611 16.9643752140560480
  1.9755682565999169  1.9704970126566195  9.8865242007496352
  2.7645121294614032  3.9409317400239501 15.0125758222852301
