10
Lattice="3.940949890606662 0.0 0.0 0.0 3.940949890606662 0.0 0.0 0.0 26.940967945119528" Properties=species:S:1:pos:R:3:forces:R:3 tau=tau25 tau_p=2 tau_q=5 stage=C constraint=fixed_layer_xy_centroids force_label=raw_dft projected_fmax_eV_A=0.12077477612466106 energy=-15499.332278574644 pbc="T T T"
Sr       0.00003612       0.00009431      10.25212095       0.00020826      -0.00007019       0.00611871
Sr       0.78809198       1.97046093      15.37062778      -0.15224890      -0.00012161       0.00418987
Ti       1.97047269       1.97057450      11.70257349       0.11354249      -0.00011081      -0.00788275
Ti       2.75839074       3.94088573      16.83161928      -0.00241915       0.00011441      -0.01518339
O        0.00000902       1.97050521      11.87793847       0.14470117      -0.00015915       0.01473268
O        0.78837796       0.00000361      16.96852654       0.00187022      -0.00000823       0.01625349
O        1.97049401       3.94093312      11.80604778      -0.08269233      -0.00004988       0.00075950
O        2.75876140       1.97047936      16.96390932       0.01137713      -0.00006659       0.01581820
O        1.97043419       1.97038596       9.88600804       0.01464063       0.00039389      -0.01172552
O        2.75873155       3.94090180      15.01594831      -0.04897977       0.00007790      -0.02308054
10
Lattice="3.940949890606662 0.0 0.0 0.0 3.940949890606662 0.0 0.0 0.0 26.940967945119528" Properties=species:S:1:pos:R:3:forces:R:3 tau=tau25 tau_p=2 tau_q=5 stage=C constraint=fixed_layer_xy_centroids force_label=raw_dft projected_fmax_eV_A=0.11743061565045933 energy=-15499.332411366197 pbc="T T T"
Sr      -0.00005856       0.00009413      10.25213625       0.00133389      -0.00006813       0.00452386
Sr       0.78780656       1.97046063      15.37063826      -0.15022904      -0.00012007       0.00481439
Ti       1.97066134       1.97057423      11.70255378       0.11174837      -0.00007816      -0.00818022
Ti       2.75847989       3.94088602      16.83158132      -0.00382015       0.00009950      -0.01337334
O        0.00027557       1.97050481      11.87797530       0.14052313      -0.00015761       0.01402537
O        0.78847784       0.00000359      16.96856718       0.00109632      -0.00000566       0.01599972
O        1.97019208       3.94093300      11.80604967      -0.07938384      -0.00004345       0.00015041
O        2.75888505       1.97047920      16.96394887       0.01090713      -0.00006685       0.01549964
O        1.97037559       1.97038694       9.88597873       0.01601180       0.00037744      -0.01191038
O        2.75870430       3.94090200      15.01589061      -0.04818736       0.00006325      -0.02154944
10
Lattice="3.940949890606662 0.0 0.0 0.0 3.940949890606662 0.0 0.0 0.0 26.940967945119528" Properties=species:S:1:pos:R:3:forces:R:3 tau=tau25 tau_p=2 tau_q=5 stage=C constraint=fixed_layer_xy_centroids force_label=raw_dft projected_fmax_eV_A=0.11109662153761321 energy=-15499.332662663326 pbc="T T T"
Sr      -0.00024499       0.00009376      10.25216249       0.00355301      -0.00007379       0.00488432
Sr       0.78724038       1.97046005      15.37066096      -0.14589468      -0.00011287       0.00366871
Ti       1.97103434       1.97057374      11.70251349       0.10848050      -0.00007302      -0.00714407
Ti       2.75865449       3.94088657      16.83151029      -0.00672266       0.00009359      -0.01295090
O        0.00079800       1.97050400      11.87804712       0.13245475      -0.00016095       0.01392355
O        0.78867564       0.00000357      16.96864786      -0.00006016      -0.00000797       0.01492397
O        1.96959658       3.94093275      11.80605180      -0.07310263      -0.00004654       0.00019335
O        2.75913129       1.97047888      16.96402719       0.00968843      -0.00006736       0.01445037
O        1.97026210       1.97038885       9.88591951       0.01858342       0.00037204      -0.01104340
O        2.75865182       3.94090237      15.01577926      -0.04697997       0.00007688      -0.02090590
10
Lattice="3.940949890606662 0.0 0.0 0.0 3.940949890606662 0.0 0.0 0.0 26.940967945119528" Properties=species:S:1:pos:R:3:forces:R:3 tau=tau25 tau_p=2 tau_q=5 stage=C constraint=fixed_layer_xy_centroids force_label=raw_dft projected_fmax_eV_A=0.10209704387820508 energy=-15499.33300620705 pbc="T T T"
Sr      -0.00051732       0.00009320      10.25220093       0.00684556      -0.00008022       0.00418704
Sr       0.78640329       1.97045919      15.37069253      -0.14007293      -0.00010464       0.00326350
Ti       1.97158399       1.97057308      11.70245554       0.10403378      -0.00006711      -0.00650926
Ti       2.75890656       3.94088736      16.83140704      -0.01141596       0.00009873      -0.01122878
O        0.00155494       1.97050277      11.87815402       0.12070095      -0.00015401       0.01281464
O        0.78896882       0.00000355      16.96876578      -0.00171775      -0.00001774       0.01335097
O        1.96872339       3.94093237      11.80605430      -0.06387880      -0.00004474      -0.00064715
O        2.75949766       1.97047841      16.96414155       0.00810232      -0.00006325       0.01285552
O        1.97010104       1.97039168       9.88583269       0.02243905       0.00036355      -0.00994348
O        2.75857731       3.94090294      15.01561559      -0.04503621       0.00006993      -0.01814325
10
Lattice="3.940949890606662 0.0 0.0 0.0 3.940949890606662 0.0 0.0 0.0 26.940967945119528" Properties=species:S:1:pos:R:3:forces:R:3 tau=tau25 tau_p=2 tau_q=5 stage=C constraint=fixed_layer_xy_centroids force_label=raw_dft projected_fmax_eV_A=0.09322220768251864 energy=-15499.333406486505 pbc="T T T"
Sr      -0.00086704       0.00009241      10.25224958       0.01078861      -0.00008099       0.00375227
Sr       0.78530755       1.97045807      15.37073189      -0.13107227      -0.00010387       0.00216821
Ti       1.97230013       1.97057224      11.70238155       0.09772532      -0.00006248      -0.00504605
Ti       2.75922270       3.94088841      16.83127645      -0.01739814       0.00009282      -0.00947734
O        0.00251353       1.97050114      11.87829322       0.10564226      -0.00014707       0.01217469
O        0.78935450       0.00000347      16.96891669      -0.00427060      -0.00001825       0.01156971
O        1.96759563       3.94093187      11.80605437      -0.05201367      -0.00003111      -0.00096853
O        2.75998215       1.97047778      16.96428760       0.00591637      -0.00006016       0.01106346
O        1.96990379       1.97039544       9.88572119       0.02723390       0.00034144      -0.00897212
O        2.75848673       3.94090371      15.01540742      -0.04255201       0.00006968      -0.01626454
10
Lattice="3.940949890606662 0.0 0.0 0.0 3.940949890606662 0.0 0.0 0.0 26.940967945119528" Properties=species:S:1:pos:R:3:forces:R:3 tau=tau25 tau_p=2 tau_q=5 stage=C constraint=fixed_layer_xy_centroids force_label=raw_dft projected_fmax_eV_A=0.08366196170528259 energy=-15499.333822820678 pbc="T T T"
Sr      -0.00128333       0.00009139      10.25230742       0.01574749      -0.00008408       0.00349696
Sr       0.78397201       1.97045670      15.37077544      -0.12150108      -0.00009307       0.00091043
Ti       1.97316901       1.97057124      11.70229605       0.09063190      -0.00004114      -0.00324782
Ti       2.75958399       3.94088972      16.83112339      -0.02405807       0.00007842      -0.00807095
O        0.00363031       1.97049910      11.87846414       0.08771935      -0.00013730       0.01076289
O        0.78982758       0.00000335      16.96909589      -0.00707259      -0.00002314       0.00919504
O        1.96624367       3.94093128      11.80605081      -0.03775331      -0.00003162      -0.00195250
O        2.76058236       1.97047700      16.96446052       0.00302645      -0.00005348       0.00867464
O        1.96968636       1.97040009       9.88558721       0.03287541       0.00031496      -0.00659539
O        2.75838769       3.94090467      15.01515909      -0.03961530       0.00007045      -0.01317330
10
Lattice="3.940949890606662 0.0 0.0 0.0 3.940949890606662 0.0 0.0 0.0 26.940967945119528" Properties=species:S:1:pos:R:3:forces:R:3 tau=tau25 tau_p=2 tau_q=5 stage=C constraint=fixed_layer_xy_centroids force_label=raw_dft projected_fmax_eV_A=0.07294107882007833 energy=-15499.334214528548 pbc="T T T"
Sr      -0.00175206       0.00009009      10.25237438       0.02128719      -0.00008665       0.00231116
Sr       0.78241384       1.97045508      15.37081851      -0.11070810      -0.00008176      -0.00063918
Ti       1.97417577       1.97057014      11.70220526       0.08231515      -0.00004628      -0.00124236
Ti       2.75996785       3.94089125      16.83095128      -0.03176264       0.00007585      -0.00536564
O        0.00484777       1.97049666      11.87866380       0.06812035      -0.00013087       0.00932436
O        0.79038438       0.00000317      16.96929632      -0.01018440      -0.00003060       0.00649101
O        1.96470504       3.94093061      11.80603929      -0.02212023      -0.00001286      -0.00280045
O        2.76129656       1.97047609      16.96465308       0.00001980      -0.00004885       0.00603926
O        1.96946953       1.97040560       9.88543854       0.03924686       0.00029876      -0.00453620
O        2.75829100       3.94090585      15.01487951      -0.03621399       0.00006351      -0.00958147
10
Lattice="3.940949890606662 0.0 0.0 0.0 3.940949890606662 0.0 0.0 0.0 26.940967945119528" Properties=species:S:1:pos:R:3:forces:R:3 tau=tau25 tau_p=2 tau_q=5 stage=C constraint=fixed_layer_xy_centroids force_label=raw_dft projected_fmax_eV_A=0.06059322071702855 energy=-15499.334548684345 pbc="T T T"
Sr      -0.00225554       0.00008847      10.25244608       0.02718145      -0.00009153       0.00140459
Sr       0.78065033       1.97045324      15.37085411      -0.09823054      -0.00006582      -0.00283233
Ti       1.97530241       1.97056890      11.70211740       0.07340834      -0.00003445       0.00011004
Ti       2.76034307       3.94089303      16.83076980      -0.04057509       0.00006171      -0.00343628
O        0.00609376       1.97049380      11.87888966       0.04737772      -0.00011981       0.00820465
O        0.79102208       0.00000287      16.96950884      -0.01327769      -0.00003471       0.00419913
O        1.96302372       3.94092991      11.80601506      -0.00526973      -0.00000771      -0.00321079
O        2.76212646       1.97047505      16.96485629      -0.00383789      -0.00004705       0.00388468
O        1.96928169       1.97041202       9.88528228       0.04581989       0.00027254      -0.00200263
O        2.75821169       3.94090726      15.01458044      -0.03259670       0.00006685      -0.00632106
10
Lattice="3.940949890606662 0.0 0.0 0.0 3.940949890606662 0.0 0.0 0.0 26.940967945119528" Properties=species:S:1:pos:R:3:forces:R:3 tau=tau25 tau_p=2 tau_q=5 stage=C constraint=fixed_layer_xy_centroids force_label=raw_dft projected_fmax_eV_A=0.04571213545600156 energy=-15499.33482311115 pbc="T T T"
Sr      -0.00282550       0.00008621      10.25252661       0.03384137      -0.00009513       0.00063403
Sr       0.77849310       1.97045100      15.37087011      -0.08306592      -0.00004731      -0.00467401
Ti       1.97666045       1.97056742      11.70203117       0.06355638      -0.00002520       0.00198412
Ti       2.76069502       3.94089523      16.83056679      -0.05054712       0.00005091      -0.00055510
O        0.00739304       1.97049013      11.87916902       0.02425604      -0.00009976       0.00642364
O        0.79181941       0.00000236      16.96974778      -0.01709552      -0.00004217       0.00087752
O        1.96106716       3.94092915      11.80596925       0.01349855       0.00000257      -0.00392839
O        2.76317822       1.97047372      16.96508387      -0.00859777      -0.00003677       0.00067029
O        1.96915089       1.97042019       9.88511397       0.05281457       0.00023371       0.00088420
O        2.75816788       3.94090912      15.01424140      -0.02866060       0.00005914      -0.00231631
10
Lattice="3.940949890606662 0.0 0.0 0.0 3.940949890606662 0.0 0.0 0.0 26.940967945119528" Properties=species:S:1:pos:R:3:forces:R:3 tau=tau25 tau_p=2 tau_q=5 stage=C constraint=fixed_layer_xy_centroids force_label=raw_dft projected_fmax_eV_A=0.036151819614949246 energy=-15499.335002570226 pbc="T T T"
Sr      -0.00342548       0.00008306      10.25261235       0.04135774      -0.00009667      -0.00009924
Sr       0.77592972       1.97044836      15.37084224      -0.06601076      -0.00003445      -0.00748834
Ti       1.97824925       1.97056568      11.70196427       0.05180696      -0.00001003       0.00408600
Ti       2.76092267       3.94089792      16.83036039      -0.06135398       0.00005734       0.00204480
O        0.00855600       1.97048552      11.87950598       0.00150564      -0.00009256       0.00447603
O        0.79280138       0.00000149      16.96999280      -0.02052435      -0.00005734      -0.00244589
O        1.95890263       3.94092838      11.80588710       0.03280548       0.00003368      -0.00434131
O        2.76449184       1.97047210      16.96531569      -0.01465657      -0.00003034      -0.00194915
O        1.96916363       1.97043045       9.88495543       0.05941999       0.00019180       0.00404563
O        2.75820801       3.94091156      15.01388372      -0.02435040       0.00003857       0.00167122
10
Lattice="3.940949890606662 0.0 0.0 0.0 3.940949890606662 0.0 0.0 0.0 26.940967945119528" Properties=species:S:1:pos:R:3:forces:R:3 tau=tau25 tau_p=2 tau_q=5 stage=C constraint=fixed_layer_xy_centroids force_label=raw_dft projected_fmax_eV_A=0.055586194352840824 energy=-15499.335085837061 pbc="T T T"
Sr      -0.00397560       0.00007878      10.25269629       0.04793102      -0.00010002      -0.00180517
Sr       0.77306128       1.97044542      15.37072957      -0.04754150      -0.00001825      -0.00807044
Ti       1.97998946       1.97056378      11.70194428       0.04202751      -0.00002031       0.00477608
Ti       2.76087634       3.94090130      16.83017882      -0.07372304       0.00003934       0.00422869
O        0.00930257       1.97047985      11.87989113      -0.01814890      -0.00005271       0.00283310
O        0.79396706       0.00000004      16.97020813      -0.02377473      -0.00005502      -0.00521805
O        1.95670308       3.94092795      11.80575630       0.05014397       0.00003162      -0.00430120
O        2.76605319       1.97047020      16.96552357      -0.02115478      -0.00002108      -0.00476065
O        1.96942652       1.97044275       9.88484406       0.06487150       0.00015015       0.00689338
O        2.75839577       3.94091447      15.01354780      -0.02063105       0.00004628       0.00542426
10
Lattice="3.940949890606662 0.0 0.0 0.0 3.940949890606662 0.0 0.0 0.0 26.940967945119528" Properties=species:S:1:pos:R:3:forces:R:3 tau=tau25 tau_p=2 tau_q=5 stage=C constraint=fixed_layer_xy_centroids force_label=raw_dft projected_fmax_eV_A=0.06843404418318981 energy=-15499.335118762834 pbc="T T T"
Sr      -0.00440110       0.00007336      10.25275902       0.05330565      -0.00008459      -0.00307015
Sr       0.77009570       1.97044230      15.37052529      -0.03010659       0.00000874      -0.00915776
Ti       1.98177131       1.97056165      11.70197908       0.03363800      -0.00000309       0.00557749
Ti       2.76041423       3.94090513      16.83004687      -0.08323998       0.00000694       0.00603772
O        0.00940881       1.97047358      11.88030611      -0.03119108      -0.00002314       0.00111380
O        0.79528040      -0.00000201      16.97036230      -0.02632527      -0.00005142      -0.00749708
O        1.95466457       3.94092785      11.80557716       0.06310233       0.00003368      -0.00352138
O        2.76778954       1.97046809      16.96567558      -0.02863129      -0.00001260      -0.00643727
O        1.97000243       1.97045666       9.88481233       0.06731457       0.00009976       0.00839105
O        2.75877376       3.94091792      15.01327622      -0.01786634       0.00002571       0.00856357
10
Lattice="3.940949890606662 0.0 0.0 0.0 3.940949890606662 0.0 0.0 0.0 26.940967945119528" Properties=species:S:1:pos:R:3:forces:R:3 tau=tau25 tau_p=2 tau_q=5 stage=C constraint=fixed_layer_xy_centroids force_label=raw_dft projected_fmax_eV_A=0.06748716852025413 energy=-15499.335131824299 pbc="T T T"
Sr      -0.00437956       0.00007324      10.25275490       0.05310074      -0.00008356      -0.00245515
Sr       0.77010525       1.97044232      15.37051303      -0.03053468       0.00000617      -0.00971723
Ti       1.98176649       1.97056164      11.70198655       0.03392982       0.00000360       0.00594131
Ti       2.76035260       3.94090514      16.83005495      -0.08248202       0.00000900       0.00551013
O        0.00931714       1.97047354      11.88030761      -0.03025289      -0.00002314       0.00131049
O        0.79529502      -0.00000207      16.97035226      -0.02638260      -0.00005451      -0.00743794
O        1.95469923       3.94092789      11.80557244       0.06240582       0.00003625      -0.00329204
O        2.76780106       1.97046808      16.96566695      -0.02864157      -0.00001697      -0.00639382
O        1.97004273       1.97045679       9.88482358       0.06692427       0.00009616       0.00876772
O        2.75879970       3.94091796      15.01328769      -0.01806663       0.00002700       0.00776653
10
Lattice="3.940949890606662 0.0 0.0 0.0 3.940949890606662 0.0 0.0 0.0 26.940967945119528" Properties=species:S:1:pos:R:3:forces:R:3 tau=tau25 tau_p=2 tau_q=5 stage=C constraint=fixed_layer_xy_centroids force_label=raw_dft projected_fmax_eV_A=0.06567535733138227 energy=-15499.335156858773 pbc="T T T"
Sr      -0.00433675       0.00007300      10.25274758       0.05252378      -0.00008228      -0.00291615
Sr       0.77012371       1.97044236      15.37048764      -0.03107024       0.00000926      -0.00919941
Ti       1.98175730       1.97056162      11.70200204       0.03484128      -0.00000257       0.00555513
Ti       2.76023033       3.94090518      16.83007037      -0.08146258       0.00001003       0.00596959
O        0.00913506       1.97047347      11.88031088      -0.02846494      -0.00002185       0.00126344
O        0.79532417      -0.00000220      16.97033224      -0.02614143      -0.00005554      -0.00710293
O        1.95476759       3.94092797      11.80556334       0.06100354       0.00003985      -0.00323650
O        2.76782410       1.97046806      16.96564975      -0.02877116      -0.00001800      -0.00609326
O        1.97012283       1.97045704       9.88484663       0.06608764       0.00009127       0.00800564
O        2.75885132       3.94091804      15.01330948      -0.01854588       0.00002982       0.00775470
10
Lattice="3.940949890606662 0.0 0.0 0.0 3.940949890606662 0.0 0.0 0.0 26.940967945119528" Properties=species:S:1:pos:R:3:forces:R:3 tau=tau25 tau_p=2 tau_q=5 stage=C constraint=fixed_layer_xy_centroids force_label=raw_dft projected_fmax_eV_A=0.06250840443175028 energy=-15499.335192777799 pbc="T T T"
Sr      -0.00427343       0.00007264      10.25273627       0.05200159      -0.00008330      -0.00173369
Sr       0.77015024       1.97044241      15.37044992      -0.03168550       0.00000823      -0.00888779
Ti       1.98174521       1.97056160      11.70202497       0.03557815       0.00000231       0.00605263
Ti       2.76004870       3.94090524      16.83009389      -0.08134713       0.00000797       0.00499360
O        0.00886498       1.97047336      11.88031588      -0.02523101      -0.00002340       0.00111354
O        0.79536828      -0.00000239      16.97030274      -0.02576245      -0.00005271      -0.00721760
O        1.95486761       3.94092810      11.80554991       0.05900579       0.00003445      -0.00320179
O        2.76785846       1.97046801      16.96562442      -0.02859298      -0.00001903      -0.00622027
O        1.97024166       1.97045740       9.88488033       0.06498283       0.00009693       0.00812391
O        2.75892795       3.94091818      15.01334163      -0.01894980       0.00002854       0.00697772
10
Lattice="3.940949890606662 0.0 0.0 0.0 3.940949890606662 0.0 0.0 0.0 26.940967945119528" Properties=species:S:1:pos:R:3:forces:R:3 tau=tau25 tau_p=2 tau_q=5 stage=C constraint=fixed_layer_xy_centroids force_label=raw_dft projected_fmax_eV_A=0.058843394723809686 energy=-15499.335237812638 pbc="T T T"
Sr      -0.00419041       0.00007216      10.25272303       0.05110659      -0.00007970      -0.00108912
Sr       0.77018398       1.97044248      15.37040026      -0.03276614       0.00000617      -0.00917987
Ti       1.98173135       1.97056157      11.70205630       0.03713573       0.00000051       0.00626784
Ti       2.75980734       3.94090531      16.83012389      -0.08047347       0.00000797       0.00384303
O        0.00851148       1.97047320      11.88032234      -0.02149005      -0.00002391       0.00149381
O        0.79542832      -0.00000266      16.97026343      -0.02521892      -0.00004962      -0.00659359
O        1.95499605       3.94092827      11.80553216       0.05642543       0.00003574      -0.00262432
O        2.76790471       1.97046795      16.96559063      -0.02863463      -0.00001928      -0.00560655
O        1.97039756       1.97045789       9.88492502       0.06349416       0.00009205       0.00776473
O        2.75902928       3.94091835      15.01338290      -0.01957869       0.00003034       0.00572430
10
Lattice="3.940949890606662 0.0 0.0 0.0 3.940949890606662 0.0 0.0 0.0 26.940967945119528" Properties=species:S:1:pos:R:3:forces:R:3 tau=tau25 tau_p=2 tau_q=5 stage=C constraint=fixed_layer_xy_centroids force_label=raw_dft projected_fmax_eV_A=0.0546498923334221 energy=-15499.335289650327 pbc="T T T"
Sr      -0.00408910       0.00007157      10.25270901       0.04977810      -0.00006196      -0.00155115
Sr       0.77022316       1.97044257      15.37033785      -0.03393933       0.00001543      -0.00761458
Ti       1.98171849       1.97056154      11.70209660       0.03916536      -0.00000668       0.00556181
Ti       2.75950684       3.94090540      16.83015830      -0.07961704      -0.00003780       0.00435468
O        0.00807977       1.97047301      11.88033104      -0.01723745      -0.00001697       0.00121382
O        0.79550574      -0.00000298      16.97021533      -0.02448256      -0.00004885      -0.00629637
O        1.95514849       3.94092848      11.80551113       0.05340901       0.00003651      -0.00266623
O        2.76796314       1.97046786      16.96554939      -0.02863618      -0.00000463      -0.00542426
O        1.97058839       1.97045850       9.88498022       0.06187977       0.00008973       0.00695303
O        2.75915476       3.94091858      15.01343109      -0.02031969       0.00003497       0.00546976
10
Lattice="3.940949890606662 0.0 0.0 0.0 3.940949890606662 0.0 0.0 0.0 26.940967945119528" Properties=species:S:1:pos:R:3:forces:R:3 tau=tau25 tau_p=2 tau_q=5 stage=C constraint=fixed_layer_xy_centroids force_label=raw_dft projected_fmax_eV_A=0.04875234242512262 energy=-15499.335345841835 pbc="T T T"
Sr      -0.00397182       0.00007089      10.25269312       0.04888798      -0.00007251      -0.00092328
Sr       0.77026572       1.97044269      15.37026562      -0.03527116       0.00000489      -0.00679620
Ti       1.98171064       1.97056148      11.70214460       0.03988192      -0.00001980       0.00506019
Ti       2.75914734       3.94090542      16.83019846      -0.07783578       0.00001363       0.00350236
O        0.00757599       1.97047279      11.88034143      -0.01136736      -0.00001286       0.00105055
O        0.79560266      -0.00000335      16.97015876      -0.02410024      -0.00004165      -0.00582509
O        1.95531946       3.94092873      11.80548657       0.04971614       0.00003162      -0.00254102
O        2.76803420       1.97046779      16.96550084      -0.02835798      -0.00001903      -0.00492572
O        1.97081176       1.97045922       9.88504457       0.05974961       0.00008510       0.00640282
O        2.75930371       3.94091888      15.01348599      -0.02130313       0.00003085       0.00499540
10
Lattice="3.940949890606662 0.0 0.0 0.0 3.940949890606662 0.0 0.0 0.0 26.940967945119528" Properties=species:S:1:pos:R:3:forces:R:3 tau=tau25 tau_p=2 tau_q=5 stage=C constraint=fixed_layer_xy_centroids force_label=raw_dft projected_fmax_eV_A=0.043278364407001155 energy=-15499.335404210251 pbc="T T T"
Sr      -0.00383950       0.00007010      10.25267667       0.04752067      -0.00006711      -0.00068057
Sr       0.77030891       1.97044283      15.37018482      -0.03726068       0.00000643      -0.00690058
Ti       1.98170941       1.97056138      11.70219956       0.04222034      -0.00001183       0.00539469
Ti       2.75872975       3.94090548      16.83024275      -0.07531892       0.00001620       0.00215818
O        0.00700930       1.97047255      11.88035322      -0.00584463      -0.00001980       0.00201215
O        0.79572074      -0.00000378      16.97009430      -0.02336233      -0.00004191      -0.00528542
O        1.95550202       3.94092902      11.80545857       0.04571524       0.00003677      -0.00135471
O        2.76811911       1.97046769      16.96544570      -0.02842020      -0.00002160      -0.00452566
O        1.97106480       1.97046006       9.88511737       0.05732300       0.00008305       0.00535124
O        2.75947512       3.94091923      15.01354702      -0.02257249       0.00002005       0.00383043
10
Lattice="3.940949890606662 0.0 0.0 0.0 3.940949890606662 0.0 0.0 0.0 26.940967945119528" Properties=species:S:1:pos:R:3:forces:R:3 tau=tau25 tau_p=2 tau_q=5 stage=C constraint=fixed_layer_xy_centroids force_label=raw_dft projected_fmax_eV_A=0.0361315302220656 energy=-15499.335467748831 pbc="T T T"
Sr      -0.00367837       0.00006911      10.25265837       0.04607623      -0.00006196      -0.00033630
Sr       0.77035205       1.97044299      15.37008430      -0.03897998       0.00000386      -0.00583100
Ti       1.98172256       1.97056122      11.70227001       0.04349895      -0.00002957       0.00459739
Ti       2.75820355       3.94090559      16.83029301      -0.07352378       0.00003008       0.00115520
O        0.00631974       1.97047224      11.88037087       0.00216898      -0.00001440       0.00209339
O        0.79587934      -0.00000432      16.97001477      -0.02245704      -0.00003831      -0.00419090
O        1.95570751       3.94092940      11.80542681       0.04079081       0.00002545      -0.00084589
O        2.76822983       1.97046754      16.96537765      -0.02820552      -0.00002417      -0.00354992
O        1.97137459       1.97046112       9.88520535       0.05451844       0.00007713       0.00442538
O        2.75968886       3.94091964      15.01361883      -0.02388735       0.00003162       0.00248266
10
Lattice="3.940949890606662 0.0 0.0 0.0 3.940949890606662 0.0 0.0 0.0 26.940967945119528" Properties=species:S:1:pos:R:3:forces:R:3 tau=tau25 tau_p=2 tau_q=5 stage=C constraint=fixed_layer_xy_centroids force_label=raw_dft projected_fmax_eV_A=0.03323798577447304 energy=-15499.33553360038 pbc="T T T"
Sr      -0.00348554       0.00006789      10.25263894       0.04462561      -0.00006299       0.00081710
Sr       0.77038880       1.97044316      15.36996239      -0.04153669       0.00000103      -0.00530419
Ti       1.98175887       1.97056096      11.70235741       0.04573221      -0.00001491       0.00405772
Ti       2.75754394       3.94090582      16.83034723      -0.07072925       0.00001825       0.00007893
O        0.00550156       1.97047188      11.88039638       0.01083874      -0.00000720       0.00246929
O        0.79609371      -0.00000500      16.96991993      -0.02159752      -0.00004062      -0.00343756
O        1.95592411       3.94092989      11.80539211       0.03528351       0.00002545      -0.00011904
O        2.76837477       1.97046729      16.96529663      -0.02806513      -0.00001877      -0.00284750
O        1.97174704       1.97046248       9.88530947       0.05097675       0.00007919       0.00398032
O        2.75995241       3.94092017      15.01369949      -0.02552823       0.00002083       0.00030519
10
Lattice="3.940949890606662 0.0 0.0 0.0 3.940949890606662 0.0 0.0 0.0 26.940967945119528" Properties=species:S:1:pos:R:3:forces:R:3 tau=tau25 tau_p=2 tau_q=5 stage=C constraint=fixed_layer_xy_centroids force_label=raw_dft projected_fmax_eV_A=0.029301727152129795 energy=-15499.335598091362 pbc="T T T"
Sr      -0.00325903       0.00006635      10.25262369       0.04236458      -0.00005579       0.00095902
Sr       0.77040531       1.97044335      15.36981526      -0.04442661       0.00000129      -0.00405309
Ti       1.98183555       1.97056061      11.70246415       0.04835242      -0.00000926       0.00295960
Ti       2.75672553       3.94090615      16.83040143      -0.06671858       0.00001671      -0.00052296
O        0.00455829       1.97047147      11.88043386       0.01985380      -0.00000591       0.00278682
O        0.79638480      -0.00000586      16.96980887      -0.02095500      -0.00003831      -0.00230294
O        1.95612812       3.94093047      11.80535709       0.02907918       0.00002314       0.00066746
O        2.76856507       1.97046698      16.96520219      -0.02770955      -0.00001928      -0.00190467
O        1.97218310       1.97046419       9.88543241       0.04745742       0.00007251       0.00258859
O        2.76027292       3.94092081      15.01378102      -0.02729792       0.00001517      -0.00117757
10
Lattice="3.940949890606662 0.0 0.0 0.0 3.940949890606662 0.0 0.0 0.0 26.940967945119528" Properties=species:S:1:pos:R:3:forces:R:3 tau=tau25 tau_p=2 tau_q=5 stage=C constraint=fixed_layer_xy_centroids force_label=raw_dft projected_fmax_eV_A=0.025611933167590088 energy=-15499.335657684294 pbc="T T T"
Sr      -0.00300274       0.00006444      10.25261462       0.04024394      -0.00004731       0.00132386
Sr       0.77037735       1.97044359      15.36964346      -0.04743428      -0.00000334      -0.00236644
Ti       1.98198093       1.97056017      11.70258891       0.05089190      -0.00001903       0.00232531
Ti       2.75572712       3.94090662      16.83045194      -0.06303625       0.00001774      -0.00145344
O        0.00351013       1.97047100      11.88048874       0.03016984       0.00000051       0.00267986
O        0.79677821      -0.00000692      16.96968398      -0.02001192      -0.00003162      -0.00168073
O        1.95627793       3.94093117      11.80532653       0.02279617       0.00002365       0.00104233
O        2.76881559       1.97046657      16.96509634      -0.02744293      -0.00002340      -0.00143545
O        1.97267978       1.97046632       9.88557091       0.04322641       0.00006659       0.00162185
O        2.76065537       3.94092158      15.01385455      -0.02940262       0.00001646      -0.00205714
10
Lattice="3.940949890606662 0.0 0.0 0.0 3.940949890606662 0.0 0.0 0.0 26.940967945119528" Properties=species:S:1:pos:R:3:forces:R:3 tau=tau25 tau_p=2 tau_q=5 stage=C constraint=fixed_layer_xy_centroids force_label=raw_dft projected_fmax_eV_A=0.021091826163268025 energy=-15499.335711426775 pbc="T T T"
Sr      -0.00272625       0.00006213      10.25261592       0.03745763      -0.00003548       0.00122153
Sr       0.77027186       1.97044383      15.36945419      -0.05063402      -0.00000540      -0.00124364
Ti       1.98223012       1.97055955      11.70273108       0.05430658      -0.00002443       0.00068828
Ti       2.75453508       3.94090726      16.83049085      -0.05838487       0.00000874      -0.00287398
O        0.00241106       1.97047049      11.88056420       0.03931500       0.00001106       0.00330875
O        0.79730540      -0.00000819      16.96954669      -0.01964349      -0.00002597      -0.00034993
O        1.95631257       3.94093201      11.80530426       0.01702353       0.00002005       0.00229677
O        2.76914280       1.97046602      16.96497989      -0.02702795      -0.00002571      -0.00035687
O        1.97321853       1.97046892       9.88572127       0.03934662       0.00006273       0.00062838
O        2.76109849       3.94092251      15.01391163      -0.03175852       0.00001414      -0.00331929
10
Lattice="3.940949890606662 0.0 0.0 0.0 3.940949890606662 0.0 0.0 0.0 26.940967945119528" Properties=species:S:1:pos:R:3:forces:R:3 tau=tau25 tau_p=2 tau_q=5 stage=C constraint=fixed_layer_xy_centroids force_label=raw_dft projected_fmax_eV_A=0.025254999076439015 energy=-15499.335762448121 pbc="T T T"
Sr      -0.00245132       0.00005946      10.25262817       0.03623070      -0.00002803       0.00175863
Sr       0.77004896       1.97044409      15.36925463      -0.05338150       0.00000051      -0.00059830
Ti       1.98262901       1.97055865      11.70287877       0.05493573      -0.00003780       0.00010310
Ti       2.75316111       3.94090804      16.83050379      -0.05469071       0.00001260      -0.00410245
O        0.00133342       1.97047003      11.88066898       0.04864759       0.00001080       0.00392222
O        0.79799025      -0.00000962      16.96940690      -0.01942494      -0.00002057       0.00086569
O        1.95616346       3.94093296      11.80530271       0.01255187       0.00001517       0.00343294
O        2.76956234       1.97046530      16.96486078      -0.02641988      -0.00002237       0.00057516
O        1.97377146       1.97047201       9.88587657       0.03549639       0.00006094      -0.00085772
O        2.76159098       3.94092363      15.01393868      -0.03394525       0.00000823      -0.00509901
10
Lattice="3.940949890606662 0.0 0.0 0.0 3.940949890606662 0.0 0.0 0.0 26.940967945119528" Properties=species:S:1:pos:R:3:forces:R:3 tau=tau25 tau_p=2 tau_q=5 stage=C constraint=fixed_layer_xy_centroids force_label=raw_dft projected_fmax_eV_A=0.02755175522044799 energy=-15499.335818367514 pbc="T T T"
Sr      -0.00219070       0.00005647      10.25265783       0.03442990      -0.00002288       0.00187202
Sr       0.76966987       1.97044439      15.36904985      -0.05559985      -0.00000900       0.00012007
Ti       1.98319889       1.97055733      11.70302696       0.05564844      -0.00003111      -0.00030570
Ti       2.75162206       3.94090899      16.83047596      -0.04951250       0.00002083      -0.00463956
O        0.00036959       1.97046963      11.88081234       0.05466397       0.00001414       0.00372630
O        0.79885285      -0.00001121      16.96927620      -0.02031557      -0.00001440       0.00151284
O        1.95576645       3.94093402      11.80533524       0.01015560       0.00001800       0.00374147
O        2.77009113       1.97046441      16.96474781      -0.02575577      -0.00002031       0.00116060
O        1.97430180       1.97047565       9.88602280       0.03236273       0.00004525      -0.00133003
O        2.76211773       3.94092486      15.01391500      -0.03607669      -0.00000077      -0.00585826
10
Lattice="3.940949890606662 0.0 0.0 0.0 3.940949890606662 0.0 0.0 0.0 26.940967945119528" Properties=species:S:1:pos:R:3:forces:R:3 tau=tau25 tau_p=2 tau_q=5 stage=C constraint=fixed_layer_xy_centroids force_label=raw_dft projected_fmax_eV_A=0.02696461131034206 energy=-15499.335887212315 pbc="T T T"
Sr      -0.00196443       0.00005318      10.25270830       0.03399333      -0.00002443       0.00188770
Sr       0.76908938       1.97044464      15.36884692      -0.05736902      -0.00000823       0.00108835
Ti       1.98397023       1.97055562      11.70317137       0.05466628      -0.00003908      -0.00139662
Ti       2.74995241       3.94091021      16.83039646      -0.04460838       0.00001671      -0.00357383
O       -0.00039988       1.97046934      11.88099689       0.05719445       0.00002288       0.00312209
O        0.79990436      -0.00001290      16.96916270      -0.02194462      -0.00000463       0.00200340
O        1.95506606       3.94093522      11.80540941       0.01066905       0.00003445       0.00360134
O        2.77074900       1.97046335      16.96464806      -0.02520478      -0.00001928       0.00147941
O        1.97477405       1.97047974       9.88615384       0.03043723       0.00002828      -0.00215921
O        2.76265848       3.94092614      15.01382605      -0.03783378      -0.00000668      -0.00605289
10
Lattice="3.940949890606662 0.0 0.0 0.0 3.940949890606662 0.0 0.0 0.0 26.940967945119528" Properties=species:S:1:pos:R:3:forces:R:3 tau=tau25 tau_p=2 tau_q=5 stage=C constraint=fixed_layer_xy_centroids force_label=raw_dft projected_fmax_eV_A=0.022874606399134984 energy=-15499.33597265606 pbc="T T T"
Sr      -0.00178257       0.00004953      10.25278317       0.03430340      -0.00000103       0.00083304
Sr       0.76825077       1.97044485      15.36865841      -0.05726412      -0.00001003       0.00086518
Ti       1.98496436       1.97055335      11.70329745       0.05384996      -0.00007816       0.00014912
Ti       2.74819172       3.94091171      16.83027074      -0.04321407       0.00004937      -0.00335837
O       -0.00091146       1.97046928      11.88122163       0.05567184       0.00002700       0.00247057
O        0.80115456      -0.00001459      16.96907535      -0.02414574      -0.00000437       0.00184297
O        1.95402027       3.94093682      11.80553016       0.01518519       0.00001620       0.00325836
O        2.77156389       1.97046209      16.96456765      -0.02498752      -0.00003368       0.00130715
O        1.97515543       1.97048413       9.88625668       0.03012227       0.00001311      -0.00212219
O        2.76319270       3.94092738      15.01365876      -0.03952068       0.00002185      -0.00524556
10
Lattice="3.940949890606662 0.0 0.0 0.0 3.940949890606662 0.0 0.0 0.0 26.940967945119528" Properties=species:S:1:pos:R:3:forces:R:3 tau=tau25 tau_p=2 tau_q=5 stage=C constraint=fixed_layer_xy_centroids force_label=raw_dft projected_fmax_eV_A=0.017352451786946218 energy=-15499.336066943506 pbc="T T T"
Sr      -0.00165641       0.00004593      10.25287114       0.03535447       0.00001594       0.00326093
Sr       0.76710573       1.97044482      15.36848364      -0.05445931      -0.00001466      -0.00206948
Ti       1.98621094       1.97054992      11.70342583       0.04688895      -0.00004242       0.00151129
Ti       2.74634684       3.94091391      16.83009208      -0.03710513       0.00001234      -0.00389548
O       -0.00114111       1.97046973      11.88148527       0.04936312       0.00002828       0.00198566
O        0.80262010      -0.00001642      16.96901713      -0.02823894      -0.00000617       0.00129147
O        1.95261760       3.94093873      11.80570229       0.02333430       0.00002828       0.00323728
O        2.77258105       1.97046023      16.96450790      -0.02599385      -0.00001723       0.00018923
O        1.97541501       1.97048879       9.88632597       0.03121345      -0.00000463      -0.00041600
O        2.76369991       3.94092890      15.01340876      -0.04035629       0.00000077      -0.00509490
10
Lattice="3.940949890606662 0.0 0.0 0.0 3.940949890606662 0.0 0.0 0.0 26.940967945119528" Properties=species:S:1:pos:R:3:forces:R:3 tau=tau25 tau_p=2 tau_q=5 stage=C constraint=fixed_layer_xy_centroids force_label=raw_dft projected_fmax_eV_A=0.013329896083094194 energy=-15499.336150482453 pbc="T T T"
Sr      -0.00157055       0.00004256      10.25302932       0.03772040       0.00000848       0.00334706
Sr       0.76558946       1.97044458      15.36826426      -0.05007840       0.00000437      -0.00429657
Ti       1.98766595       1.97054546      11.70358678       0.04203085      -0.00002134       0.00207565
Ti       2.74450370       3.94091649      16.82982951      -0.03805695       0.00000771      -0.00415927
O       -0.00110985       1.97047067      11.88179176       0.03905531       0.00002494       0.00158714
O        0.80427985      -0.00001828      16.96898666      -0.03285304      -0.00000771       0.00062581
O        1.95091523       3.94094115      11.80594415       0.03437539       0.00002700       0.00258396
O        2.77384048       1.97045811      16.96445220      -0.02670811      -0.00000823      -0.00065923
O        1.97554526       1.97049325       9.88638635       0.03411777      -0.00001748       0.00240681
O        2.76414014       3.94093054      15.01304901      -0.03960322      -0.00001800      -0.00351136
10
Lattice="3.940949890606662 0.0 0.0 0.0 3.940949890606662 0.0 0.0 0.0 26.940967945119528" Properties=species:S:1:pos:R:3:forces:R:3 tau=tau25 tau_p=2 tau_q=5 stage=C constraint=fixed_layer_xy_centroids force_label=raw_dft projected_fmax_eV_A=0.009968065436539456 energy=-15499.336188850504 pbc="T T T"
Sr      -0.00147619       0.00003933      10.25329535       0.04040669       0.00001054       0.00076490
Sr       0.76366518       1.97044463      15.36790641      -0.04287057       0.00000257      -0.00576878
Ti       1.98927012       1.97054017      11.70381472       0.03425044      -0.00001620       0.00240630
Ti       2.74263859       3.94091946      16.82943282      -0.03761447       0.00001234      -0.00029568
O       -0.00102726       1.97047228      11.88214974       0.02724675       0.00003111       0.00111534
O        0.80609023      -0.00002025      16.96897627      -0.03754196      -0.00000617      -0.00099605
O        1.94911111       3.94094431      11.80626946       0.04620272       0.00002623       0.00177149
O        2.77544751       1.97045586      16.96437521      -0.02934349      -0.00000386      -0.00194992
O        1.97556826       1.97049701       9.88652420       0.03765432      -0.00003317       0.00450354
O        2.76451213       3.94093174      15.01257582      -0.03839068      -0.00002365      -0.00155089
