10
Lattice="3.940949890606662 0.0 0.0 0.0 3.940949890606662 0.0 0.0 0.0 26.940967945119528" Properties=species:S:1:pos:R:3:forces:R:3 tau=tau55 tau_p=5 tau_q=5 stage=B constraint=xy_fixed_z_free force_label=raw_dft energy=-15497.532321179586 free_energy=-15497.532321179586 stress="0.012085708688870383 -3.672630460797807e-06 4.590788075997259e-06 -3.672630460797807e-06 0.011817606665232143 9.181576151994517e-07 4.590788075997259e-06 9.181576151994517e-07 -0.024303632074329486" pbc="T T T"
Sr       0.00003626       0.00009419      10.77550598      -0.00150204      -0.00025094       0.70078553
Sr       1.97037682       1.97046076      14.77117439      -0.00010876       0.00100684       3.54979666
Ti       1.97047258       1.97057465      12.26953743       0.00209519       0.00049674      -2.70496636
Ti       3.94067560       3.94088565      16.26570357       0.00275519      -0.00016455      -0.21190467
O        0.00000906       1.97050529      12.43588137      -0.00061167      -0.00078007      -0.61879485
O        1.97066293       0.00000355      16.39089730      -0.00221578      -0.00036407       0.02021427
O        1.97049386       3.94093294      12.43516176       0.00045303       0.00009899      -0.61210253
O        0.00009655       1.97047928      16.37904332      -0.00035301      -0.00014115       0.06739170
O        1.97043435       1.97038588      10.47604975       0.00041189       0.00000489      -0.85438915
O        0.00006660       3.94090181      14.47636414      -0.00092431       0.00009359       0.66396914
10
Lattice="3.940949890606662 0.0 0.0 0.0 3.940949890606662 0.0 0.0 0.0 26.940967945119528" Properties=species:S:1:pos:R:3:forces:R:3 tau=tau55 tau_p=5 tau_q=5 stage=B constraint=xy_fixed_z_free force_label=raw_dft energy=-15497.627861164676 free_energy=-15497.627861164676 stress="0.011461361510534757 -2.7544728455983548e-06 -2.3872097995185745e-05 -2.7544728455983548e-06 0.011137251872369348 3.672630460797807e-06 -2.3872097995185745e-05 3.672630460797807e-06 -0.024132854757902392" pbc="T T T"
Sr       0.00003612       0.00009431      10.77864014      -0.00228134      -0.00009899       0.67762015
Sr       1.97037695       1.97046093      14.78704962      -0.00350647      -0.00018718       3.20977110
Ti       1.97047269       1.97057450      12.25744029      -0.00454468      -0.00028822      -2.26693960
Ti       3.94067571       3.94088573      16.26475595      -0.00022523      -0.00046691      -0.13241130
O        0.00000902       1.97050521      12.43311417       0.00350441      -0.00046357      -0.64819413
O        1.97066294       0.00000361      16.39098775       0.00013190       0.00003162       0.06390914
O        1.97049401       3.94093312      12.43242453       0.00905131       0.00025043      -0.64186305
O        0.00009646       1.97047936      16.37934501       0.00161568       0.00055870       0.08657804
O        1.97043419       1.97038596      10.47222902      -0.00269246       0.00042372      -0.99266359
O        0.00006661       3.94090180      14.47933348      -0.00105364       0.00024040       0.64419350
10
Lattice="3.940949890606662 0.0 0.0 0.0 3.940949890606662 0.0 0.0 0.0 26.940967945119528" Properties=species:S:1:pos:R:3:forces:R:3 tau=tau55 tau_p=5 tau_q=5 stage=B constraint=xy_fixed_z_free force_label=raw_dft energy=-15497.753974364057 free_energy=-15497.753974364057 stress="0.0103834444702906 1.8363152303989035e-06 -7.345260921595614e-06 1.8363152303989035e-06 0.010075861669198783 0.0 -7.345260921595614e-06 0.0 -0.02351034389479716" pbc="T T T"
Sr       0.00003612       0.00009431      10.78453289      -0.00126370      -0.00044069       0.57820562
Sr       1.97037695       1.97046093      14.81086260      -0.00256390      -0.00066926       2.78998503
Ti       1.97047269       1.97057450      12.24414498      -0.00321671      -0.00022651      -1.92548296
Ti       3.94067571       3.94088573      16.26493912       0.00008510       0.00004679      -0.01699859
O        0.00000902       1.97050521      12.42655940       0.00246157      -0.00016969      -0.65358265
O        1.97066294       0.00000361      16.39236033      -0.00022574       0.00046177       0.10974137
O        1.97049401       3.94093312      12.42592223       0.00648355       0.00004088      -0.64676306
O        0.00009646       1.97047936      16.38049219       0.00127681       0.00021417       0.13590594
O        1.97043419       1.97038596      10.46053068      -0.00193990       0.00052862      -0.92142784
O        0.00006661       3.94090180      14.48497555      -0.00109683       0.00021366       0.55041688
10
Lattice="3.940949890606662 0.0 0.0 0.0 3.940949890606662 0.0 0.0 0.0 26.940967945119528" Properties=species:S:1:pos:R:3:forces:R:3 tau=tau55 tau_p=5 tau_q=5 stage=B constraint=xy_fixed_z_free force_label=raw_dft energy=-15497.917049874595 free_energy=-15497.917049874595 stress="0.009020898569334614 -9.181576151994517e-07 -6.427103306396162e-06 -9.181576151994517e-07 0.00874269681192918 1.8363152303989035e-06 -6.427103306396162e-06 1.8363152303989035e-06 -0.022266240326201905" pbc="T T T"
Sr       0.00003612       0.00009431      10.79288845      -0.00040495      -0.00011827       0.39340938
Sr       1.97037695       1.97046093      14.84658206      -0.00038875      -0.00021134       2.24818366
Ti       1.97047269       1.97057450      12.22523986      -0.00031650       0.00026637      -1.49474476
Ti       3.94067571       3.94088573      16.26837085       0.00119453       0.00013190       0.09494904
O        0.00000902       1.97050521      12.41391807       0.00012624      -0.00023089      -0.64830469
O        1.97066294       0.00000361      16.39612829      -0.00115751      -0.00000257       0.16396748
O        1.97049401       3.94093312      12.41340337       0.00020877      -0.00006659      -0.64376695
O        0.00009646       1.97047936      16.38419444       0.00040289      -0.00020209       0.21767396
O        1.97043419       1.97038596      10.44159629       0.00039106       0.00031316      -0.75833891
O        0.00006661       3.94090180      14.49299827      -0.00005605       0.00012033       0.42697153
10
Lattice="3.940949890606662 0.0 0.0 0.0 3.940949890606662 0.0 0.0 0.0 26.940967945119528" Properties=species:S:1:pos:R:3:forces:R:3 tau=tau55 tau_p=5 tau_q=5 stage=B constraint=xy_fixed_z_free force_label=raw_dft energy=-15498.110195869102 free_energy=-15498.110195869102 stress="0.006930253679525462 -0.0 -0.0 -0.0 0.006717241112799188 1.8363152303989035e-06 -0.0 1.8363152303989035e-06 -0.020318828024363866" pbc="T T T"
Sr       0.00003612       0.00009431      10.80270535      -0.00022189      -0.00012958       0.13178832
Sr       1.97037695       1.97046093      14.90016125      -0.00034376      -0.00023243       1.47046763
Ti       1.97047269       1.97057450      12.19829615       0.00025840       0.00007713      -1.13094395
Ti       3.94067571       3.94088573      16.27701897       0.00137785       0.00022369       0.12729557
O        0.00000902       1.97050521      12.39105322       0.00005245      -0.00020749      -0.57501977
O        1.97066294       0.00000361      16.40423583      -0.00122333       0.00000926       0.28675539
O        1.97049401       3.94093312      12.39068361      -0.00002237       0.00000257      -0.57137471
O        0.00009646       1.97047936      16.39342216       0.00018075      -0.00018923       0.33837852
O        1.97043419       1.97038596      10.41341247       0.00006685       0.00031625      -0.51381414
O        0.00006661       3.94090180      14.50433094      -0.00012470       0.00012984       0.43646713
10
Lattice="3.940949890606662 0.0 0.0 0.0 3.940949890606662 0.0 0.0 0.0 26.940967945119528" Properties=species:S:1:pos:R:3:forces:R:3 tau=tau55 tau_p=5 tau_q=5 stage=B constraint=xy_fixed_z_free force_label=raw_dft energy=-15498.313206942657 free_energy=-15498.313206942657 stress="0.00321538796842848 -0.0 0.0 -0.0 0.003079500641378961 1.8363152303989035e-06 0.0 1.8363152303989035e-06 -0.018984745009479064" pbc="T T T"
Sr       0.00003612       0.00009431      10.81227416      -0.00015478      -0.00019772      -0.26949969
Sr       1.97037695       1.97046093      14.98053004      -0.00023268      -0.00016892       0.45160681
Ti       1.97047269       1.97057450      12.15162691       0.00008073      -0.00005811      -0.60416065
Ti       3.94067571       3.94088573      16.29273205       0.00157069       0.00027639       0.30311301
O        0.00000902       1.97050521      12.35031751       0.00011724      -0.00018846      -0.43646353
O        1.97066294       0.00000361      16.42403123      -0.00130098      -0.00001620       0.45153688
O        1.97049401       3.94093312      12.35019633       0.00000309       0.00003934      -0.43456503
O        0.00009646       1.97047936      16.41551323      -0.00003188      -0.00021752       0.49618794
O        1.97043419       1.97038596      10.36995563       0.00013575       0.00037821      -0.29219945
O        0.00006661       3.94090180      14.52814288      -0.00018743       0.00015272       0.33444370
10
Lattice="3.940949890606662 0.0 0.0 0.0 3.940949890606662 0.0 0.0 0.0 26.940967945119528" Properties=species:S:1:pos:R:3:forces:R:3 tau=tau55 tau_p=5 tau_q=5 stage=B constraint=xy_fixed_z_free force_label=raw_dft energy=-15498.446417959407 free_energy=-15498.446417959407 stress="-0.0010907712468569487 0.0 9.181576151994517e-07 0.0 -0.0011449425461537161 9.181576151994517e-07 9.181576151994517e-07 9.181576151994517e-07 -0.018109740802193984" pbc="T T T"
Sr       0.00003612       0.00009431      10.81108367      -0.00024554      -0.00009230      -0.72228458
Sr       1.97037695       1.97046093      15.07386218      -0.00011699      -0.00020543      -0.50569948
Ti       1.97047269       1.97057450      12.08722366       0.00017484      -0.00020132      -0.00775290
Ti       3.94067571       3.94088573      16.32154434       0.00177458       0.00031650       0.48378288
O        0.00000902       1.97050521      12.29338336       0.00002160      -0.00012624      -0.27014504
O        1.97066294       0.00000361      16.46119571      -0.00136243      -0.00003728       0.59632418
O        1.97049401       3.94093312      12.29358064      -0.00001594       0.00005142      -0.27097062
O        0.00009646       1.97047936      16.45632467      -0.00023988      -0.00022240       0.62378382
O        1.97043419       1.97038596      10.31370397       0.00014964       0.00039389      -0.18422263
O        0.00006661       3.94090180      14.56341775      -0.00014013       0.00012290       0.25718462
10
Lattice="3.940949890606662 0.0 0.0 0.0 3.940949890606662 0.0 0.0 0.0 26.940967945119528" Properties=species:S:1:pos:R:3:forces:R:3 tau=tau55 tau_p=5 tau_q=5 stage=B constraint=xy_fixed_z_free force_label=raw_dft energy=-15498.513840965777 free_energy=-15498.513840965777 stress="-0.002272440097618643 0.0 0.0 0.0 -0.002290803249922632 9.181576151994517e-07 0.0 9.181576151994517e-07 -0.017092422164552992" pbc="T T T"
Sr       0.00003612       0.00009431      10.79338347      -0.00020209      -0.00013858      -0.89328403
Sr       1.97037695       1.97046093      15.12067189      -0.00006145      -0.00016815      -0.83025986
Ti       1.97047269       1.97057450      12.04523378       0.00011853      -0.00019746       0.29144354
Ti       3.94067571       3.94088573      16.34881665       0.00178537       0.00027099       0.57764820
O        0.00000902       1.97050521      12.25477776      -0.00002108      -0.00007148      -0.19873110
O        1.97066294       0.00000361      16.49629634      -0.00131872      -0.00006685       0.59234617
O        1.97049401       3.94093312      12.25513624      -0.00002263       0.00007379      -0.20039975
O        0.00009646       1.97047936      16.49413748      -0.00028282      -0.00017946       0.60480471
O        1.97043419       1.97038596      10.27616942       0.00015864       0.00036638      -0.18983380
O        0.00006661       3.94090180      14.59069693      -0.00015401       0.00011081       0.24626617
10
Lattice="3.940949890606662 0.0 0.0 0.0 3.940949890606662 0.0 0.0 0.0 26.940967945119528" Properties=species:S:1:pos:R:3:forces:R:3 tau=tau55 tau_p=5 tau_q=5 stage=B constraint=xy_fixed_z_free force_label=raw_dft energy=-15498.60229347383 free_energy=-15498.60229347383 stress="-0.002491879767651312 -0.0 0.0 -0.0 -0.002457907935888932 9.181576151994517e-07 0.0 9.181576151994517e-07 -0.01566193260007225" pbc="T T T"
Sr       0.00003612       0.00009431      10.75832205      -0.00023166      -0.00016224      -0.98773787
Sr       1.97037695       1.97046093      15.16394791      -0.00014990      -0.00018152      -0.96709449
Ti       1.97047269       1.97057450      11.99845548       0.00023731      -0.00023397       0.49272801
Ti       3.94067571       3.94088573      16.38836352       0.00169359       0.00030056       0.63754282
O        0.00000902       1.97050521      12.20907709      -0.00000000      -0.00003497      -0.14529124
O        1.97066294       0.00000361      16.54457353      -0.00122590      -0.00004988       0.51813848
O        1.97049401       3.94093312      12.20958798       0.00001363       0.00008382      -0.14800555
O        0.00009646       1.97047936      16.54562817      -0.00028642      -0.00019592       0.51200048
O        1.97043419       1.97038596      10.23088134       0.00014141       0.00039235      -0.17421178
O        0.00006661       3.94090180      14.62648290      -0.00019206       0.00008202       0.26193088
10
Lattice="3.940949890606662 0.0 0.0 0.0 3.940949890606662 0.0 0.0 0.0 26.940967945119528" Properties=species:S:1:pos:R:3:forces:R:3 tau=tau55 tau_p=5 tau_q=5 stage=B constraint=xy_fixed_z_free force_label=raw_dft energy=-15498.729648328655 free_energy=-15498.729648328655 stress="-0.0014093719393311584 -0.0 -0.0 -0.0 -0.0013276559115784072 9.181576151994517e-07 -0.0 9.181576151994517e-07 -0.013024065771604223" pbc="T T T"
Sr       0.00003612       0.00009431      10.69483662      -0.00017561      -0.00018923      -1.01467815
Sr       1.97037695       1.97046093      15.21488184      -0.00011853      -0.00014630      -0.97833972
Ti       1.97047269       1.97057450      11.93588893       0.00014655      -0.00024143       0.61265737
Ti       3.94067571       3.94088573      16.45186689       0.00158509       0.00033399       0.64498180
O        0.00000902       1.97050521      12.14442464       0.00001260      -0.00003420      -0.08995416
O        1.97066294       0.00000361      16.61754533      -0.00111766      -0.00003008       0.38081200
O        1.97049401       3.94093312      12.14509559      -0.00002443       0.00007019      -0.09406227
O        0.00009646       1.97047936      16.62286419      -0.00022600      -0.00016815       0.35025650
O        1.97043419       1.97038596      10.16649858       0.00012701       0.00034453      -0.13169448
O        0.00006661       3.94090180      14.68141735      -0.00020929       0.00006068       0.32002110
10
Lattice="3.940949890606662 0.0 0.0 0.0 3.940949890606662 0.0 0.0 0.0 26.940967945119528" Properties=species:S:1:pos:R:3:forces:R:3 tau=tau55 tau_p=5 tau_q=5 stage=B constraint=xy_fixed_z_free force_label=raw_dft energy=-15498.89784611009 free_energy=-15498.89784611009 stress="0.0013515280095735928 -0.0 -9.181576151994517e-07 -0.0 0.001532405059767885 9.181576151994517e-07 -9.181576151994517e-07 9.181576151994517e-07 -0.009101696439472165" pbc="T T T"
Sr       0.00003612       0.00009431      10.58599628      -0.00017561      -0.00017098      -0.93457672
Sr       1.97037695       1.97046093      15.27910187      -0.00017663      -0.00018975      -0.78564274
Ti       1.97047269       1.97057450      11.84840296       0.00020903      -0.00025402       0.62865735
Ti       3.94067571       3.94088573      16.55330074       0.00129404       0.00028359       0.62101166
O        0.00000902       1.97050521      12.04982073      -0.00001594      -0.00006325      -0.05591789
O        1.97066294       0.00000361      16.72785977      -0.00089089      -0.00004525       0.16263384
O        1.97049401       3.94093312      12.05063645      -0.00001466       0.00009616      -0.06079888
O        0.00009646       1.97047936      16.73871822      -0.00004911      -0.00011956       0.10606443
O        1.97043419       1.97038596      10.07253548       0.00008639       0.00039518      -0.06644913
O        0.00006661       3.94090180      14.76894746      -0.00026688       0.00006788       0.38501807
10
Lattice="3.940949890606662 0.0 0.0 0.0 3.940949890606662 0.0 0.0 0.0 26.940967945119528" Properties=species:S:1:pos:R:3:forces:R:3 tau=tau55 tau_p=5 tau_q=5 stage=B constraint=xy_fixed_z_free force_label=raw_dft energy=-15499.074013561634 free_energy=-15499.074013561634 stress="0.005620960920251043 -0.0 -1.8363152303989035e-06 -0.0 0.005973533444487633 9.181576151994517e-07 -1.8363152303989035e-06 9.181576151994517e-07 -0.004178535306772705" pbc="T T T"
Sr       0.00003612       0.00009431      10.41221523      -0.00025120      -0.00006042      -0.68322156
Sr       1.97037695       1.97046093      15.36677314      -0.00019772      -0.00018589      -0.40806904
Ti       1.97047269       1.97057450      11.72578991       0.00015967      -0.00027459       0.45905427
Ti       3.94067571       3.94088573      16.71092709       0.00099553       0.00019386       0.48505481
O        0.00000902       1.97050521      11.91134497      -0.00002031      -0.00005322      -0.03132426
O        1.97066294       0.00000361      16.88798599      -0.00059855      -0.00003111      -0.08729898
O        1.97049401       3.94093312      11.91227558      -0.00003882       0.00005631      -0.03667833
O        0.00009646       1.97047936      16.90565583       0.00007713      -0.00007430      -0.17124961
O        1.97043419       1.97038596       9.93666215       0.00015838       0.00039389       0.03323691
O        0.00006661       3.94090180      14.90569008      -0.00028411       0.00003548       0.44049553
10
Lattice="3.940949890606662 0.0 0.0 0.0 3.940949890606662 0.0 0.0 0.0 26.940967945119528" Properties=species:S:1:pos:R:3:forces:R:3 tau=tau55 tau_p=5 tau_q=5 stage=B constraint=xy_fixed_z_free force_label=raw_dft energy=-15499.179103109782 free_energy=-15499.179103109782 stress="0.010151150593645138 -9.181576151994517e-07 -1.8363152303989035e-06 -9.181576151994517e-07 0.010679091222384822 1.8363152303989035e-06 -1.8363152303989035e-06 1.8363152303989035e-06 2.0199467534387938e-05" pbc="T T T"
Sr       0.00003612       0.00009431      10.20431758      -0.00013395      -0.00007662      -0.29353925
Sr       1.97037695       1.97046093      15.46342554      -0.00032730      -0.00010953       0.07836105
Ti       1.97047269       1.97057450      11.59212614       0.00012084      -0.00024914       0.15394583
Ti       3.94067571       3.94088573      16.89718744       0.00048542       0.00009796       0.23266324
O        0.00000902       1.97050521      11.75485533       0.00000463      -0.00012804      -0.02040145
O        1.97066294       0.00000361      17.06321997      -0.00034993      -0.00001054      -0.23523460
O        1.97049401       3.94093312      11.75578485      -0.00000334       0.00006788      -0.02535108
O        0.00009646       1.97047936      17.08631364       0.00027279      -0.00003831      -0.33286196
O        1.97043419       1.97038596       9.78673140       0.00012058       0.00037127       0.06014145
O        0.00006661       3.94090180      15.07135806      -0.00019000       0.00007559       0.38227676
10
Lattice="3.940949890606662 0.0 0.0 0.0 3.940949890606662 0.0 0.0 0.0 26.940967945119528" Properties=species:S:1:pos:R:3:forces:R:3 tau=tau55 tau_p=5 tau_q=5 stage=B constraint=xy_fixed_z_free force_label=raw_dft energy=-15499.20198978841 free_energy=-15499.20198978841 stress="0.011797407197697755 -0.0 -1.8363152303989035e-06 -0.0 0.012362992288660616 1.8363152303989035e-06 -1.8363152303989035e-06 1.8363152303989035e-06 0.0012606304056688473" pbc="T T T"
Sr       0.00003612       0.00009431      10.10137585      -0.00010027      -0.00015607      -0.09989918
Sr       1.97037695       1.97046093      15.51707839      -0.00022600      -0.00011776       0.26298040
Ti       1.97047269       1.97057450      11.52788191       0.00004808      -0.00015170      -0.02101748
Ti       3.94067571       3.94088573      16.99055651       0.00031059      -0.00006171       0.06152830
O        0.00000902       1.97050521      11.67750434      -0.00002674      -0.00011699      -0.00638199
O        1.97066294       0.00000361      17.14276051      -0.00031033       0.00001723      -0.21350569
O        1.97049401       3.94093312      11.67834390      -0.00001646       0.00003214      -0.01061403
O        0.00009646       1.97047936      17.16642798       0.00032910      -0.00002340      -0.30731368
O        1.97043419       1.97038596       9.71424915       0.00014758       0.00043683       0.06004323
O        0.00006661       3.94090180      15.15914144      -0.00015529       0.00014192       0.27418013
10
Lattice="3.940949890606662 0.0 0.0 0.0 3.940949890606662 0.0 0.0 0.0 26.940967945119528" Properties=species:S:1:pos:R:3:forces:R:3 tau=tau55 tau_p=5 tau_q=5 stage=B constraint=xy_fixed_z_free force_label=raw_dft energy=-15499.211745205583 free_energy=-15499.211745205583 stress="0.012149979721934344 4.590788075997259e-06 -5.5089456911967096e-06 4.590788075997259e-06 0.012664147986446038 -9.181576151994517e-07 -5.5089456911967096e-06 -9.181576151994517e-07 0.0012890932917400302" pbc="T T T"
Sr       0.00003612       0.00009431      10.04880720      -0.00020003      -0.00028076      -0.00692321
Sr       1.97037695       1.97046093      15.55299663      -0.00017304      -0.00009822       0.30435151
Ti       1.97047269       1.97057450      11.49422773      -0.00018255      -0.00034838      -0.12542510
Ti       3.94067571       3.94088573      17.03900833       0.00015941       0.00012804      -0.02508445
O        0.00000902       1.97050521      11.63661932       0.00008279      -0.00010747       0.00697489
O        1.97066294       0.00000361      17.17894590      -0.00034273       0.00004962      -0.13571311
O        1.97049401       3.94093312      11.63732997       0.00005991       0.00006094       0.00368799
O        0.00009646       1.97047936      17.20077806       0.00030930       0.00001800      -0.22197002
O        1.97043419       1.97038596       9.67699081       0.00030570       0.00046768       0.04271168
O        0.00006661       3.94090180      15.20961602      -0.00001877       0.00011030       0.15739008
10
Lattice="3.940949890606662 0.0 0.0 0.0 3.940949890606662 0.0 0.0 0.0 26.940967945119528" Properties=species:S:1:pos:R:3:forces:R:3 tau=tau55 tau_p=5 tau_q=5 stage=B constraint=xy_fixed_z_free force_label=raw_dft energy=-15499.218927242184 free_energy=-15499.218927242184 stress="0.012147225249088745 9.181576151994517e-07 -9.181576151994517e-07 9.181576151994517e-07 0.012578759328232488 1.8363152303989035e-06 -9.181576151994517e-07 1.8363152303989035e-06 0.0009750833873418177" pbc="T T T"
Sr       0.00003612       0.00009431       9.99161755      -0.00013653       0.00003291       0.07025591
Sr       1.97037695       1.97046093      15.60081528      -0.00022754      -0.00012161       0.28415266
Ti       1.97047269       1.97057450      11.45267230       0.00012033      -0.00024503      -0.17787020
Ti       3.94067571       3.94088573      17.09288485       0.00038232       0.00003934      -0.12279949
O        0.00000902       1.97050521      11.58884259      -0.00002160      -0.00014218       0.02302114
O        1.97066294       0.00000361      17.22003954      -0.00039106      -0.00000309      -0.03518375
O        1.97049401       3.94093312      11.58939010      -0.00002288       0.00001234       0.02068530
O        0.00009646       1.97047936      17.23875801       0.00032242      -0.00003985      -0.10904871
O        1.97043419       1.97038596       9.63285822       0.00013190       0.00039981       0.01940103
O        0.00006661       3.94090180      15.26744154      -0.00015735       0.00006762       0.02738611
10
Lattice="3.940949890606662 0.0 0.0 0.0 3.940949890606662 0.0 0.0 0.0 26.940967945119528" Properties=species:S:1:pos:R:3:forces:R:3 tau=tau55 tau_p=5 tau_q=5 stage=B constraint=xy_fixed_z_free force_label=raw_dft energy=-15499.223497394103 free_energy=-15499.223497394103 stress="0.011475133874762749 0.0 -9.181576151994517e-07 0.0 0.011806588773849748 1.8363152303989035e-06 -9.181576151994517e-07 1.8363152303989035e-06 0.0001772044197334942" pbc="T T T"
Sr       0.00003612       0.00009431       9.97830521      -0.00011750      -0.00007585       0.05813598
Sr       1.97037695       1.97046093      15.62661826      -0.00019463      -0.00011339       0.18127177
Ti       1.97047269       1.97057450      11.43767742       0.00006171      -0.00016481      -0.14520691
Ti       3.94067571       3.94088573      17.10606910       0.00048157       0.00009256      -0.11160927
O        0.00000902       1.97050521      11.57396532      -0.00004191      -0.00015015       0.02667957
O        1.97066294       0.00000361      17.22862496      -0.00047874      -0.00000668       0.04176654
O        1.97049401       3.94093312      11.57437699      -0.00003034       0.00000566       0.02483814
O        0.00009646       1.97047936      17.24350898       0.00029645      -0.00005348      -0.01885184
O        1.97043419       1.97038596       9.61893780       0.00014450       0.00039106       0.00283336
O        0.00006661       3.94090180      15.28723592      -0.00012110       0.00007533      -0.05985734
10
Lattice="3.940949890606662 0.0 0.0 0.0 3.940949890606662 0.0 0.0 0.0 26.940967945119528" Properties=species:S:1:pos:R:3:forces:R:3 tau=tau55 tau_p=5 tau_q=5 stage=B constraint=xy_fixed_z_free force_label=raw_dft energy=-15499.226095128866 free_energy=-15499.226095128866 stress="0.010753461989215979 0.0 -9.181576151994517e-07 0.0 0.010980246920170243 1.8363152303989035e-06 -9.181576151994517e-07 1.8363152303989035e-06 -0.0004967232698229034" pbc="T T T"
Sr       0.00003612       0.00009431       9.97218962      -0.00014115      -0.00007508       0.02569406
Sr       1.97037695       1.97046093      15.65037881      -0.00017869      -0.00012367       0.05244536
Ti       1.97047269       1.97057450      11.42466919       0.00006685      -0.00017098      -0.07666593
Ti       3.94067571       3.94088573      17.11220158       0.00054996       0.00011956      -0.06906009
O        0.00000902       1.97050521      11.56367024      -0.00002391      -0.00014707       0.02033203
O        1.97066294       0.00000361      17.23545424      -0.00052322      -0.00000129       0.08918668
O        1.97049401       3.94093312      11.56394262      -0.00002494       0.00000797       0.01910895
O        0.00009646       1.97047936      17.24593752       0.00024734      -0.00008022       0.04578903
O        1.97043419       1.97038596       9.60818651       0.00015838       0.00039029      -0.01426834
O        0.00006661       3.94090180      15.29868963      -0.00013035       0.00008048      -0.09256228
10
Lattice="3.940949890606662 0.0 0.0 0.0 3.940949890606662 0.0 0.0 0.0 26.940967945119528" Properties=species:S:1:pos:R:3:forces:R:3 tau=tau55 tau_p=5 tau_q=5 stage=B constraint=xy_fixed_z_free force_label=raw_dft energy=-15499.227263449633 free_energy=-15499.227263449633 stress="0.010518413639724918 0.0 -9.181576151994517e-07 0.0 0.010687354640921617 1.8363152303989035e-06 -9.181576151994517e-07 1.8363152303989035e-06 -0.0006004750803404414" pbc="T T T"
Sr       0.00003612       0.00009431       9.96205681      -0.00013498      -0.00006556       0.01179468
Sr       1.97037695       1.97046093      15.66726024      -0.00018589      -0.00012496      -0.00263667
Ti       1.97047269       1.97057450      11.41120765       0.00008073      -0.00013087      -0.03823925
Ti       3.94067571       3.94088573      17.12133941       0.00057541       0.00009847      -0.03529610
O        0.00000902       1.97050521      11.55213993      -0.00002777      -0.00016378       0.01224925
O        1.97066294       0.00000361      17.24837119      -0.00053787      -0.00001388       0.08298801
O        1.97049401       3.94093312      11.55233490      -0.00002263       0.00001363       0.01138382
O        0.00009646       1.97047936      17.25631461       0.00025197      -0.00008073       0.04947214
O        1.97043419       1.97038596       9.59568425       0.00013010       0.00038747      -0.01974016
O        0.00006661       3.94090180      15.30861098      -0.00012907       0.00008048      -0.07197598
10
Lattice="3.940949890606662 0.0 0.0 0.0 3.940949890606662 0.0 0.0 0.0 26.940967945119528" Properties=species:S:1:pos:R:3:forces:R:3 tau=tau55 tau_p=5 tau_q=5 stage=B constraint=xy_fixed_z_free force_label=raw_dft energy=-15499.228326734456 free_energy=-15499.228326734456 stress="0.010512904694033723 0.0 -9.181576151994517e-07 0.0 0.01063410149924005 1.8363152303989035e-06 -9.181576151994517e-07 1.8363152303989035e-06 -0.0004710148565973187" pbc="T T T"
Sr       0.00003612       0.00009431       9.94592450      -0.00013755      -0.00006839       0.00815914
Sr       1.97037695       1.97046093      15.68562078      -0.00016558      -0.00012058      -0.02471010
Ti       1.97047269       1.97057450      11.39403713       0.00005528      -0.00017175      -0.01899762
Ti       3.94067571       3.94088573      17.13601170       0.00059881       0.00011056      -0.01118121
O        0.00000902       1.97050521      11.53615426      -0.00002725      -0.00014784       0.00466527
O        1.97066294       0.00000361      17.26694076      -0.00052965      -0.00000591       0.06426087
O        1.97049401       3.94093312      11.53628098      -0.00002314       0.00001131       0.00405746
O        0.00009646       1.97047936      17.27270414       0.00022986      -0.00007713       0.03973974
O        1.97043419       1.97038596       9.57877573       0.00013910       0.00038181      -0.02102725
O        0.00006661       3.94090180      15.32286998      -0.00013987       0.00008819      -0.04496602
10
Lattice="3.940949890606662 0.0 0.0 0.0 3.940949890606662 0.0 0.0 0.0 26.940967945119528" Properties=species:S:1:pos:R:3:forces:R:3 tau=tau55 tau_p=5 tau_q=5 stage=B constraint=xy_fixed_z_free force_label=raw_dft energy=-15499.229326616758 free_energy=-15499.229326616758 stress="0.010487196280808138 -0.0 -9.181576151994517e-07 -0.0 0.0105496309986417 1.8363152303989035e-06 -9.181576151994517e-07 1.8363152303989035e-06 -0.0003498180513909911" pbc="T T T"
Sr       0.00003612       0.00009431       9.92003978      -0.00013858      -0.00006505       0.01150029
Sr       1.97037695       1.97046093      15.71247829      -0.00017638      -0.00012264      -0.04921760
Ti       1.97047269       1.97057450      11.36837396       0.00006376      -0.00017715       0.00483085
Ti       3.94067571       3.94088573      17.15989931       0.00060318       0.00011261       0.00493112
O        0.00000902       1.97050521      11.51132589      -0.00002700      -0.00014527      -0.00261738
O        1.97066294       0.00000361      17.29479510      -0.00052091      -0.00000977       0.04442995
O        1.97049401       3.94093312      11.51136105      -0.00002365       0.00000848      -0.00283670
O        0.00009646       1.97047936      17.29778974       0.00023089      -0.00007225       0.03169502
O        1.97043419       1.97038596       9.55305624       0.00014372       0.00038875      -0.02127048
O        0.00006661       3.94090180      15.34620059      -0.00015478       0.00008279      -0.02144531
10
Lattice="3.940949890606662 0.0 0.0 0.0 3.940949890606662 0.0 0.0 0.0 26.940967945119528" Properties=species:S:1:pos:R:3:forces:R:3 tau=tau55 tau_p=5 tau_q=5 stage=B constraint=xy_fixed_z_free force_label=raw_dft energy=-15499.229842408538 free_energy=-15499.229842408538 stress="0.01068184569523042 0.0 -9.181576151994517e-07 0.0 0.010714899369377601 1.8363152303989035e-06 -9.181576151994517e-07 1.8363152303989035e-06 -3.672630460797807e-06" pbc="T T T"
Sr       0.00003612       0.00009431       9.90018152      -0.00013781      -0.00006633       0.01374023
Sr       1.97037695       1.97046093      15.72926977      -0.00018435      -0.00011544      -0.03257613
Ti       1.97047269       1.97057450      11.34933627       0.00007430      -0.00017818       0.00652803
Ti       3.94067571       3.94088573      17.17851001       0.00055742       0.00009744       0.01674714
O        0.00000902       1.97050521      11.49257782      -0.00002674      -0.00014655      -0.00722968
O        1.97066294       0.00000361      17.31752518      -0.00048671      -0.00000926       0.00823113
O        1.97049401       3.94093312      11.49256868      -0.00002211       0.00001028      -0.00714175
O        0.00009646       1.97047936      17.31907650       0.00024040      -0.00006813       0.00164551
O        1.97043419       1.97038596       9.53334691       0.00014758       0.00038747      -0.00995763
O        0.00006661       3.94090180      15.36292729      -0.00016224       0.00008870       0.01001316
10
Lattice="3.940949890606662 0.0 0.0 0.0 3.940949890606662 0.0 0.0 0.0 26.940967945119528" Properties=species:S:1:pos:R:3:forces:R:3 tau=tau55 tau_p=5 tau_q=5 stage=B constraint=xy_fixed_z_free force_label=raw_dft energy=-15499.229930165251 free_energy=-15499.229930165251 stress="0.010801206185206351 0.0 -9.181576151994517e-07 0.0 0.010821405652740737 1.8363152303989035e-06 -9.181576151994517e-07 1.8363152303989035e-06 0.00015241416412310898" pbc="T T T"
Sr       0.00003612       0.00009431       9.89134995      -0.00014655      -0.00006968       0.01445577
Sr       1.97037695       1.97046093      15.73594953      -0.00018512      -0.00012496      -0.01743439
Ti       1.97047269       1.97057450      11.34108805       0.00003291      -0.00019386       0.00060729
Ti       3.94067571       3.94088573      17.18736001       0.00059367       0.00011467       0.01510266
O        0.00000902       1.97050521      11.48411361      -0.00002288      -0.00014167      -0.00668127
O        1.97066294       0.00000361      17.32737737      -0.00047257      -0.00000540      -0.00431868
O        1.97049401       3.94093312      11.48409214      -0.00002468       0.00001466      -0.00658254
O        0.00009646       1.97047936      17.32835166       0.00024451      -0.00006171      -0.00845482
O        1.97043419       1.97038596       9.52467304       0.00014964       0.00038489      -0.00354632
O        0.00006661       3.94090180      15.37096462      -0.00016892       0.00008279       0.01685255
