10
Lattice="3.940949890606662 0.0 0.0 0.0 3.940949890606662 0.0 0.0 0.0 26.940967945119528" Properties=species:S:1:pos:R:3:forces:R:3 tau=tau14 tau_p=1 tau_q=4 stage=A constraint=rigid_scf force_label=raw_dft energy=-15497.559398003157 free_energy=-15497.559398003157 stress="0.005628306181172639 0.0009548839198074298 0.0005683395638084606 0.0009548839198074298 0.019553084573287523 0.011993892927350437 0.0005683395638084606 0.011993892927350437 -0.029108350874668218" pbc="T T T"
Sr       0.00003626       0.00009419      10.75260867      -0.00724151       0.00665993       0.34262186
Sr       0.39399686       1.57636577      14.64522241      -0.58148789      -0.68061472       4.49237697
Ti       1.97047258       1.97057465      12.38212169       0.89372703       0.39850968      -2.59985375
Ti       2.36429564       3.54679066      16.28444791       0.02690968      -0.13064624       0.14103966
O        0.00000906       1.97050529      12.45001441      -0.04370335       0.10514886      -1.30112552
O        0.39428297       3.54685845      16.39256827       0.00146553      -0.03524340      -0.08572624
O        1.97049386       3.94093294      12.44909065      -0.81749511       1.40703338      -3.14320164
O        2.36466649       1.57638429      16.37955485       0.08849326       0.01551352      -0.24681382
O        1.97043435       1.97038588      10.49176941       0.06297300       0.18613167       0.31316756
O        2.36463654       3.54680682      14.44792112       0.37635937      -1.27249269       2.08751517
