10
Lattice="3.940949890606662 0.0 0.0 0.0 3.940949890606662 0.0 0.0 0.0 26.940967945119528" Properties=species:S:1:pos:R:3:forces:R:3 tau=tau41 tau_p=4 tau_q=1 stage=A constraint=rigid_scf force_label=raw_dft energy=-15497.555056698975 free_energy=-15497.555056698975 stress="0.019884539472374525 0.0009521294469618315 0.012002156345887232 0.0009521294469618315 0.005310623646313629 0.0005738485094996574 0.012002156345887232 0.0005738485094996574 -0.029114777977974616" pbc="T T T"
Sr       0.00003626       0.00009419      10.75260867       0.00678180      -0.00716206       0.34294942
Sr       1.57628183       0.39408080      14.64522241      -0.67783870      -0.57930117       4.48696685
Ti       1.97047258       1.97057465      12.38212169       0.39647362       0.89290119      -2.60482575
Ti       3.54658061       2.36450570      16.28444791      -0.13178575       0.02726449       0.14068974
O        0.00000906       1.97050529      12.45001441       1.41338066      -0.81843150      -3.15314384
O        1.57656794       2.36457348      16.39256827       0.01666486       0.08561825      -0.28091230
O        1.97049386       3.94093294      12.44909065       0.10357329      -0.04360565      -1.28951442
O        3.54695145       0.39409932      16.37955485      -0.03516292       0.00061192      -0.04923688
O        1.97043435       1.97038588      10.49176941       0.18628028       0.06296940       0.31301356
O        3.54692150       2.36452185      14.44792112      -1.27836715       0.37913539       2.09401363
