Sr Ti O
 1.0000000000000000
     3.9409498906066620    0.0000000000000000    0.0000000000000000
     0.0000000000000000    3.9409498906066620    0.0000000000000000
     0.0000000000000000    0.0000000000000000   26.9409679451195281
 Sr  Ti  O
   2   2   6
Cartesian
  0.0000361212000000  0.0000943054000000 10.5291872895999994
  2.7585669358999998  0.3940809680000000 15.0616587852000006
  1.9704726885999999  1.9705745045000000 12.0234049226999993
  0.7879157806000000  2.3645057633000000 16.5373826177999987
  0.0000090208000000  1.9705052130000000 12.0553071551999995
  2.7588529197999998  2.3645735586000001 16.6645774692000010
  1.9704940097000001  3.9409331233999998 12.2172082185999997
  0.7882864444000000  0.3940993976000000 16.6779456756000002
  1.9704341934000000  1.9703859550000000 10.1928545751000001
  0.7882565922000000  2.3645218346000001 14.7157932541999994
