10
Lattice="3.940949890606662 0.0 0.0 0.0 3.940949890606662 0.0 0.0 0.0 26.940967945119528" Properties=species:S:1:pos:R:3:forces:R:3 tau=tau71 tau_p=7 tau_q=1 stage=B constraint=xy_fixed_z_free force_label=raw_dft energy=-15498.57537597291 free_energy=-15498.57537597291 stress="0.015057784889271009 -0.0012633848785144456 -0.016221090587728713 -0.0012633848785144456 0.007159793083325324 0.0032548687458820564 -0.016221090587728713 0.0032548687458820564 -0.016886754858748316" pbc="T T T"
Sr       0.00003626       0.00009419      10.75260867      -0.00601278      -0.00335272       0.29062182
Sr       2.75856679       0.39408080      14.64522241       0.90359698      -0.52882244       3.06290994
Ti       1.97047258       1.97057465      12.38212169      -0.61991328       0.75430562      -1.57408618
Ti       0.78791569       2.36450570      16.28444791       0.17173761      -0.01570661       0.03822948
O        0.00000906       1.97050529      12.45001441      -1.94663285      -0.60700506      -2.07860064
O        2.75885291       2.36457348      16.39256827      -0.01373972       0.04776827      -0.18423600
O        1.97049386       3.94093294      12.44909065       0.04581063       0.31507198      -0.77440085
O        0.78828653       0.39409932      16.37955485       0.04976216      -0.00403689      -0.03177652
O        1.97043435       1.97038588      10.49176941      -0.28411693       0.08885244       0.25522441
O        0.78825658       2.36452185      14.44792112       1.69950819      -0.04707458       0.99611453
10
Lattice="3.940949890606662 0.0 0.0 0.0 3.940949890606662 0.0 0.0 0.0 26.940967945119528" Properties=species:S:1:pos:R:3:forces:R:3 tau=tau71 tau_p=7 tau_q=1 stage=B constraint=xy_fixed_z_free force_label=raw_dft energy=-15498.889154249857 free_energy=-15498.889154249857 stress="0.01262558536660766 -0.0010705717793225607 -0.01391467865834769 -0.0010705717793225607 0.005832137171746917 0.003182334294281299 -0.01391467865834769 0.003182334294281299 -0.01712639399631537" pbc="T T T"
Sr       0.00003612       0.00009431      10.75859021      -0.00520314      -0.00359492       0.26706871
Sr       2.75856694       0.39408097      14.70826265       0.67407614      -0.47403660       2.18301571
Ti       1.97047269       1.97057450      12.34972456      -0.56305668       0.62357145      -0.97063978
Ti       0.78791578       2.36450576      16.28523474       0.15329945      -0.01515151       0.18795124
O        0.00000902       1.97050521      12.40723329      -1.64787401      -0.53147299      -1.65188107
O        2.75885292       2.36457356      16.38877644      -0.01692814       0.04463332      -0.03736996
O        1.97049401       3.94093312      12.43315214       0.15704864       0.35316776      -0.42977892
O        0.78828644       0.39409940      16.37890079       0.04404917      -0.00262330       0.10325962
O        1.97043419       1.97038596      10.49702234      -0.26237568       0.08577997      -0.22758634
O        0.78825659       2.36452183      14.46842280       1.46696425      -0.08027318       0.57596053
10
Lattice="3.940949890606662 0.0 0.0 0.0 3.940949890606662 0.0 0.0 0.0 26.940967945119528" Properties=species:S:1:pos:R:3:forces:R:3 tau=tau71 tau_p=7 tau_q=1 stage=B constraint=xy_fixed_z_free force_label=raw_dft energy=-15499.12401271075 free_energy=-15499.12401271075 stress="0.009699417046967007 -0.0009181576151994518 -0.011779962203008965 -0.0009181576151994518 0.004139054529319128 0.0031153087883717396 -0.011779962203008965 0.0031153087883717396 -0.01688400038590272" pbc="T T T"
Sr       0.00003612       0.00009431      10.76693367      -0.00299019      -0.00459173       0.12392254
Sr       2.75856694       0.39408097      14.77760659       0.48785911      -0.42139635       1.29092287
Ti       1.97047269       1.97057450      12.31853861      -0.51606977       0.51282015      -0.56839043
Ti       0.78791578       2.36450576      16.29082960       0.13471732      -0.01523379       0.20190822
O        0.00000902       1.97050521      12.35515908      -1.36865761      -0.45278464      -1.15994368
O        2.75885292       2.36457356      16.38736990      -0.01830985       0.04081549       0.15800072
O        1.97049401       3.94093312      12.41921472       0.23923884       0.37760609      -0.13695367
O        0.78828644       0.39409940      16.38188670       0.03832075      -0.00130689       0.27762875
O        1.97043419       1.97038596      10.49074972      -0.23861123       0.07980216      -0.51236172
O        0.78825659       2.36452183      14.48703136       1.24450263      -0.11573075       0.32526615
10
Lattice="3.940949890606662 0.0 0.0 0.0 3.940949890606662 0.0 0.0 0.0 26.940967945119528" Properties=species:S:1:pos:R:3:forces:R:3 tau=tau71 tau_p=7 tau_q=1 stage=B constraint=xy_fixed_z_free force_label=raw_dft energy=-15499.311645270715 free_energy=-15499.311645270715 stress="0.00495713296446184 -0.000760234505385146 -0.00909159670570497 -0.000760234505385146 0.0011734054322248993 0.002991357510319814 -0.00909159670570497 0.002991357510319814 -0.01626240768041269" pbc="T T T"
Sr       0.00003612       0.00009431      10.77765681       0.00136320      -0.00637762      -0.23675001
Sr       2.75856694       0.39408097      14.88162251       0.29336056      -0.35122323       0.10197304
Ti       1.97047269       1.97057450      12.27157165      -0.45996753       0.38592336      -0.25268750
Ti       0.78791578       2.36450576      16.30304352       0.10819356      -0.01609999       0.21863941
O        0.00000902       1.97050521      12.26887700      -1.01639925      -0.34289337      -0.40734424
O        2.75885292       2.36457356      16.39351750      -0.01877214       0.03484230       0.45375806
O        1.97049401       3.94093312      12.40349899       0.30679483       0.38812422       0.14174723
O        0.78828644       0.39409940      16.39625612       0.03078896       0.00095002       0.52594486
O        1.97043419       1.97038596      10.46465672      -0.20191130       0.06713048      -0.63043809
O        0.78825659       2.36452183      14.51461914       0.95654936      -0.16037590       0.08515699
10
Lattice="3.940949890606662 0.0 0.0 0.0 3.940949890606662 0.0 0.0 0.0 26.940967945119528" Properties=species:S:1:pos:R:3:forces:R:3 tau=tau71 tau_p=7 tau_q=1 stage=B constraint=xy_fixed_z_free force_label=raw_dft energy=-15499.359301247561 free_energy=-15499.359301247561 stress="0.0033375029312500072 -0.0007069813637035779 -0.008046733339607995 -0.0007069813637035779 0.00035991778515818507 0.002935349895792647 -0.008046733339607995 0.002935349895792647 -0.015083493302496592" pbc="T T T"
Sr       0.00003612       0.00009431      10.77507532       0.00330258      -0.00701988      -0.42454672
Sr       2.75856694       0.39408097      14.92541873       0.23117508      -0.32207104      -0.29741827
Ti       1.97047269       1.97057450      12.24538486      -0.43936939       0.34003688      -0.20962435
Ti       0.78791578       2.36450576      16.31316883       0.09819197      -0.01680190       0.26492930
O        0.00000902       1.97050521      12.22480404      -0.87838628      -0.29582727      -0.09099186
O        2.75885292       2.36457356      16.40768439      -0.01825715       0.03186908       0.51766977
O        1.97049401       3.94093312      12.40037487       0.32134496       0.38717317       0.15782845
O        0.78828644       0.39409940      16.41542792       0.02777563       0.00211036       0.55883596
O        1.97043419       1.97038596      10.43961304      -0.18358911       0.05957477      -0.50549251
O        0.78825659       2.36452183      14.52836796       0.83781171      -0.17904417       0.02881024
10
Lattice="3.940949890606662 0.0 0.0 0.0 3.940949890606662 0.0 0.0 0.0 26.940967945119528" Properties=species:S:1:pos:R:3:forces:R:3 tau=tau71 tau_p=7 tau_q=1 stage=B constraint=xy_fixed_z_free force_label=raw_dft energy=-15499.411519348972 free_energy=-15499.411519348972 stress="0.0028545520256550955 -0.0006592371677132063 -0.00708266784364857 -0.0006592371677132063 0.0008318507993707032 0.0028811785964958795 -0.00708266784364857 0.0028811785964958795 -0.012583350116308486" pbc="T T T"
Sr       0.00003612       0.00009431      10.75873144       0.00481311      -0.00723997      -0.56109493
Sr       2.75856694       0.39408097      14.96347544       0.18091285      -0.29387838      -0.51790811
Ti       1.97047269       1.97057450      12.20991233      -0.42026892       0.29841355      -0.13234599
Ti       0.78791578       2.36450576      16.33189081       0.09111964      -0.01814916       0.30778110
O        0.00000902       1.97050521      12.17608876      -0.75033712      -0.24973793       0.15320124
O        2.75885292       2.36457356      16.43765747      -0.01692969       0.02855801       0.47227488
O        1.97049401       3.94093312      12.40052112       0.32852476       0.38448997       0.04540465
O        0.78828644       0.39409940      16.45172902       0.02479212       0.00344374       0.47488558
O        1.97043419       1.97038596      10.40072950      -0.16291101       0.05066539      -0.30091137
O        0.78825659       2.36452183      14.54458407       0.72028427      -0.19656495       0.05871320
10
Lattice="3.940949890606662 0.0 0.0 0.0 3.940949890606662 0.0 0.0 0.0 26.940967945119528" Properties=species:S:1:pos:R:3:forces:R:3 tau=tau71 tau_p=7 tau_q=1 stage=B constraint=xy_fixed_z_free force_label=raw_dft energy=-15499.46875468534 free_energy=-15499.46875468534 stress="0.0038819703970632818 -0.0006059840260316382 -0.006261834935660261 -0.0006059840260316382 0.003006048032163005 0.0028343525581207077 -0.006261834935660261 0.0028343525581207077 -0.008748205757620375" pbc="T T T"
Sr       0.00003612       0.00009431      10.72381762       0.00560449      -0.00680854      -0.58936986
Sr       2.75856694       0.39408097      14.99065440       0.14455051      -0.26984782      -0.50700792
Ti       1.97047269       1.97057450      12.16694647      -0.40280496       0.26325371      -0.01414775
Ti       0.78791578       2.36450576      16.36166015       0.08596818      -0.01983349       0.33812166
O        0.00000902       1.97050521      12.12689809      -0.63991621      -0.20833083       0.27780667
O        2.75885292       2.36457356      16.48429120      -0.01492140       0.02536342       0.30356758
O        1.97049401       3.94093312      12.40104410       0.32849520       0.37885179      -0.17693946
O        0.78828644       0.39409940      16.50531583       0.02211072       0.00474908       0.26772563
O        1.97043419       1.97038596      10.34966614      -0.14139628       0.04164904      -0.05615984
O        0.78825659       2.36452183      14.56502596       0.61230950      -0.20904611       0.15640355
10
Lattice="3.940949890606662 0.0 0.0 0.0 3.940949890606662 0.0 0.0 0.0 26.940967945119528" Properties=species:S:1:pos:R:3:forces:R:3 tau=tau71 tau_p=7 tau_q=1 stage=B constraint=xy_fixed_z_free force_label=raw_dft energy=-15499.516808220505 free_energy=-15499.516808220505 stress="0.006399558577940178 -0.0005444674658132749 -0.005711858524155789 -0.0005444674658132749 0.00668143296580641 0.0028058896720495243 -0.005711858524155789 0.0028058896720495243 -0.0042345429212998715" pbc="T T T"
Sr       0.00003612       0.00009431      10.67109989       0.00512292      -0.00574796      -0.46240853
Sr       2.75856694       0.39408097      15.00004493       0.12629644      -0.25494673      -0.26997792
Ti       1.97047269       1.97057450      12.12593676      -0.38986820       0.24117616       0.08198965
Ti       0.78791578       2.36450576      16.40146824       0.08370972      -0.02162838       0.32048621
O        0.00000902       1.97050521      12.08801904      -0.56094400      -0.17811600       0.25007192
O        2.75885292       2.36457356      16.53964885      -0.01278275       0.02284297       0.06896779
O        1.97049401       3.94093312      12.39609767       0.32093821       0.36877230      -0.41466006
O        0.78828644       0.39409940      16.56631785       0.01983118       0.00552607       0.00848258
O        1.97043419       1.97038596      10.29678266      -0.12319209       0.03450343       0.15272147
O        0.78825659       2.36452183      14.58990407       0.53088858      -0.21238212       0.26432689
10
Lattice="3.940949890606662 0.0 0.0 0.0 3.940949890606662 0.0 0.0 0.0 26.940967945119528" Properties=species:S:1:pos:R:3:forces:R:3 tau=tau71 tau_p=7 tau_q=1 stage=B constraint=xy_fixed_z_free force_label=raw_dft energy=-15499.542487195291 free_energy=-15499.542487195291 stress="0.008638945001411642 -0.000493968796977305 -0.005554853571956683 -0.000493968796977305 0.00939550687633599 0.0028077259872799237 -0.005554853571956683 0.0028077259872799237 -0.0015829037286038549" pbc="T T T"
Sr       0.00003612       0.00009431      10.62817390       0.00379161      -0.00463544      -0.26607807
Sr       2.75856694       0.39408097      14.99426525       0.12608073      -0.25248362      -0.02511993
Ti       1.97047269       1.97057450      12.10677510      -0.38720299       0.23736347       0.09014159
Ti       0.78791578       2.36450576      16.43281361       0.08566350      -0.02310985       0.22711326
O        0.00000902       1.97050521      12.07492885      -0.53045843      -0.16658177       0.15388130
O        2.75885292       2.36457356      16.57367827      -0.01132777       0.02164972      -0.05542116
O        1.97049401       3.94093312      12.38304110       0.31076564       0.35728615      -0.49112338
O        0.78828644       0.39409940      16.60179071       0.01828774       0.00562480      -0.11646043
O        1.97043419       1.97038596      10.26968210      -0.11444752       0.03192822       0.19909543
O        0.78825659       2.36452183      14.61017107       0.49884724      -0.20704142       0.28397166
10
Lattice="3.940949890606662 0.0 0.0 0.0 3.940949890606662 0.0 0.0 0.0 26.940967945119528" Properties=species:S:1:pos:R:3:forces:R:3 tau=tau71 tau_p=7 tau_q=1 stage=B constraint=xy_fixed_z_free force_label=raw_dft energy=-15499.560905900742 free_energy=-15499.560905900742 stress="0.010457815237121755 -0.00043704302483493903 -0.00550986384881191 -0.00043704302483493903 0.011187750541205318 0.0028104804601255216 -0.00550986384881191 0.0028104804601255216 -9.273391913514463e-05" pbc="T T T"
Sr       0.00003612       0.00009431      10.59040711       0.00232685      -0.00337097      -0.04882602
Sr       2.75856694       0.39408097      14.98660077       0.13099102      -0.25367584       0.17492115
Ti       1.97047269       1.97057450      12.09757740      -0.38673094       0.23887091       0.02853976
Ti       0.78791578       2.36450576      16.46112113       0.08749104      -0.02409612       0.09609524
O        0.00000902       1.97050521      12.07236070      -0.51437618      -0.16133724       0.06618148
O        2.75885292       2.36457356      16.59611768      -0.01000288       0.02089716      -0.09311970
O        1.97049401       3.94093312      12.36014622       0.29855727       0.34218838      -0.44474325
O        0.78828644       0.39409940      16.62328579       0.01670497       0.00542657      -0.14458213
O        1.97043419       1.97038596      10.25604596      -0.10854118       0.03138828       0.14178220
O        0.78825659       2.36452183      14.63165722       0.48358028      -0.19629113       0.22375102
10
Lattice="3.940949890606662 0.0 0.0 0.0 3.940949890606662 0.0 0.0 0.0 26.940967945119528" Properties=species:S:1:pos:R:3:forces:R:3 tau=tau71 tau_p=7 tau_q=1 stage=B constraint=xy_fixed_z_free force_label=raw_dft energy=-15499.572942720339 free_energy=-15499.572942720339 stress="0.011311701819257246 -0.00038470804076857026 -0.005423557032983161 -0.00038470804076857026 0.0117221182732514 0.0027820175740543387 -0.005423557032983161 0.0027820175740543387 0.00027636544217503496" pbc="T T T"
Sr       0.00003612       0.00009431      10.56477157       0.00151489      -0.00246697       0.10293977
Sr       2.75856694       0.39408097      14.98784487       0.13210225      -0.25209615       0.24976647
Ti       1.97047269       1.97057450      12.09180923      -0.38214255       0.23766841      -0.04736538
Ti       0.78791578       2.36450576      16.48247091       0.08730284      -0.02385495      -0.01138999
O        0.00000902       1.97050521      12.07170142      -0.49951444      -0.15760374       0.03714421
O        2.75885292       2.36457356      16.60828151      -0.00911225       0.02010037      -0.06021189
O        1.97049401       3.94093312      12.33238607       0.28686646       0.32534971      -0.32590275
O        0.78828644       0.39409940      16.63343787       0.01499673       0.00506533      -0.10174524
O        1.97043419       1.97038596      10.25053168      -0.10351081       0.03158215       0.03372439
O        0.78825659       2.36452183      14.65208485       0.47149661      -0.18374414       0.12303988
10
Lattice="3.940949890606662 0.0 0.0 0.0 3.940949890606662 0.0 0.0 0.0 26.940967945119528" Properties=species:S:1:pos:R:3:forces:R:3 tau=tau71 tau_p=7 tau_q=1 stage=B constraint=xy_fixed_z_free force_label=raw_dft energy=-15499.582253775614 free_energy=-15499.582253775614 stress="0.011390663374164398 -0.0003378820023933982 -0.005223398672869681 -0.0003378820023933982 0.011413617314544384 0.0027030560191471857 -0.005223398672869681 0.0027030560191471857 3.672630460797807e-05" pbc="T T T"
Sr       0.00003612       0.00009431      10.54787630       0.00126498      -0.00189927       0.17579712
Sr       2.75856694       0.39408097      15.00107437       0.12684820      -0.24408408       0.21394329
Ti       1.97047269       1.97057450      12.08287635      -0.37028436       0.22963551      -0.10314675
Ti       0.78791578       2.36450576      16.49971897       0.08487314      -0.02291187      -0.07116017
O        0.00000902       1.97050521      12.06782030      -0.47807246      -0.15215120       0.05578265
O        2.75885292       2.36457356      16.61716171      -0.00864508       0.01903156       0.00510133
O        1.97049401       3.94093312      12.30097009       0.27457325       0.30621633      -0.18357471
O        0.78828644       0.39409940      16.64001398       0.01307946       0.00472517      -0.02951781
O        1.97043419       1.97038596      10.24508245      -0.09732011       0.03152584      -0.07679397
O        0.78825659       2.36452183      14.67272545       0.45368298      -0.17008799       0.01356925
10
Lattice="3.940949890606662 0.0 0.0 0.0 3.940949890606662 0.0 0.0 0.0 26.940967945119528" Properties=species:S:1:pos:R:3:forces:R:3 tau=tau71 tau_p=7 tau_q=1 stage=B constraint=xy_fixed_z_free force_label=raw_dft energy=-15499.589010906457 free_energy=-15499.589010906457 stress="0.01091781220233668 -0.0003020738554006196 -0.004931424551236255 -0.0003020738554006196 0.010649710178698441 0.0025818592139408582 -0.004931424551236255 0.0025818592139408582 -0.00038838067122936806" pbc="T T T"
Sr       0.00003612       0.00009431      10.53815808       0.00156503      -0.00169410       0.16377413
Sr       2.75856694       0.39408097      15.02373973       0.11672885      -0.22998698       0.10460430
Ti       1.97047269       1.97057450      12.06819378      -0.35167755       0.21564331      -0.11792005
Ti       0.78791578       2.36450576      16.51347128       0.08077583      -0.02160035      -0.07301702
O        0.00000902       1.97050521      12.05972508      -0.45159473      -0.14484927       0.09403527
O        2.75885292       2.36457356      16.62713148      -0.00854892       0.01763751       0.06376799
O        1.97049401       3.94093312      12.27075942       0.26183857       0.28701867      -0.06999571
O        0.78828644       0.39409940      16.64795837       0.01119381       0.00444904       0.03222466
O        1.97043419       1.97038596      10.23473335      -0.09001844       0.03068200      -0.13487879
O        0.78825659       2.36452183      14.69144939       0.42973727      -0.15730009      -0.06259453
10
Lattice="3.940949890606662 0.0 0.0 0.0 3.940949890606662 0.0 0.0 0.0 26.940967945119528" Properties=species:S:1:pos:R:3:forces:R:3 tau=tau71 tau_p=7 tau_q=1 stage=B constraint=xy_fixed_z_free force_label=raw_dft energy=-15499.593156152618 free_energy=-15499.593156152618 stress="0.010423843405359375 -0.00027820175740543384 -0.004644041217678827 -0.00027820175740543384 0.010010672478519621 0.002455153463043334 -0.004644041217678827 0.002455153463043334 -0.0004994777426685017" pbc="T T T"
Sr       0.00003612       0.00009431      10.53225238       0.00207848      -0.00174938       0.10478377
Sr       2.75856694       0.39408097      15.04670178       0.10656168      -0.21486221      -0.00146784
Ti       1.97047269       1.97057450      12.05006833      -0.33209243       0.20077385      -0.09552265
Ti       0.78791578       2.36450576      16.52453230       0.07645921      -0.02022198      -0.04111605
O        0.00000902       1.97050521      12.05065417      -0.42775829      -0.13777771       0.11308406
O        2.75885292       2.36457356      16.64000119      -0.00856666       0.01623163       0.08263448
O        1.97049401       3.94093312      12.24693085       0.25041851       0.27124753      -0.01682144
O        0.78828644       0.39409940      16.65926174       0.00972828       0.00423538       0.05241708
O        1.97043419       1.97038596      10.21930061      -0.08289571       0.02925298      -0.11975350
O        0.78825659       2.36452183      14.70561662       0.40606718      -0.14713009      -0.07823815
10
Lattice="3.940949890606662 0.0 0.0 0.0 3.940949890606662 0.0 0.0 0.0 26.940967945119528" Properties=species:S:1:pos:R:3:forces:R:3 tau=tau71 tau_p=7 tau_q=1 stage=B constraint=xy_fixed_z_free force_label=raw_dft energy=-15499.595449119879 free_energy=-15499.595449119879 stress="0.010255820561777877 -0.00026351123556224264 -0.004439292069489349 -0.00026351123556224264 0.009740734139650983 0.002353237967756195 -0.004439292069489349 0.002353237967756195 -0.00022862124618466345" pbc="T T T"
Sr       0.00003612       0.00009431      10.52763011       0.00251043      -0.00186379       0.04789091
Sr       2.75856694       0.39408097      15.06257873       0.09966599      -0.20316163      -0.05453207
Ti       1.97047269       1.97057450      12.03330240      -0.31659073       0.18967105      -0.05599708
Ti       0.78791578       2.36450576      16.53347481       0.07373872      -0.01930230      -0.00793597
O        0.00000902       1.97050521      12.04503166      -0.41243631      -0.13301422       0.09593146
O        2.75885292       2.36457356      16.65371876      -0.00863814       0.01509880       0.06369805
O        1.97049401       3.94093312      12.22993818       0.24150166       0.26010411      -0.00815194
O        0.78828644       0.39409940      16.67146447       0.00872915       0.00407520       0.03648652
O        1.97043419       1.97038596      10.20327607      -0.07730022       0.02793452      -0.06482882
O        0.78825659       2.36452183      14.71490477       0.38881945      -0.13954174      -0.05256080
10
Lattice="3.940949890606662 0.0 0.0 0.0 3.940949890606662 0.0 0.0 0.0 26.940967945119528" Properties=species:S:1:pos:R:3:forces:R:3 tau=tau71 tau_p=7 tau_q=1 stage=B constraint=xy_fixed_z_free force_label=raw_dft energy=-15499.5964956697 free_energy=-15499.5964956697 stress="0.010385280785521 -0.00025708413225584645 -0.0043539034112758 -0.00025708413225584645 0.009734307036344588 0.0022972303532290284 -0.0043539034112758 0.0022972303532290284 0.00013405101181911995" pbc="T T T"
Sr       0.00003612       0.00009431      10.52517602       0.00275777      -0.00193450       0.01784294
Sr       2.75856694       0.39408097      15.06825258       0.09717690      -0.19724861      -0.05353191
Ti       1.97047269       1.97057450      12.02318595      -0.30804953       0.18446277      -0.01958949
Ti       0.78791578       2.36450576      16.53875034       0.07295274      -0.01882819       0.00785703
O        0.00000902       1.97050521      12.04534594      -0.40830095      -0.13172430       0.05539159
O        2.75885292       2.36457356      16.66329610      -0.00872710       0.01446888       0.03192050
O        1.97049401       3.94093312      12.22005155       0.23628927       0.25424945      -0.01388267
O        0.78828644       0.39409940      16.67939015       0.00820465       0.00397570       0.01035075
O        1.97043419       1.97038596      10.19293267      -0.07425706       0.02730486      -0.01636584
O        0.78825659       2.36452183      14.71893866       0.38195332      -0.13472606      -0.01999290
10
Lattice="3.940949890606662 0.0 0.0 0.0 3.940949890606662 0.0 0.0 0.0 26.940967945119528" Properties=species:S:1:pos:R:3:forces:R:3 tau=tau71 tau_p=7 tau_q=1 stage=B constraint=xy_fixed_z_free force_label=raw_dft energy=-15499.596916085582 free_energy=-15499.596916085582 stress="0.010579012042328082 -0.00025616597464064704 -0.00436951209073419 -0.00025616597464064704 0.009767360710491767 0.002282539831385837 -0.00436951209073419 0.002282539831385837 0.0003140099043982125" pbc="T T T"
Sr       0.00003612       0.00009431      10.52611899       0.00286729      -0.00200855       0.00856460
Sr       2.75856694       0.39408097      15.06625988       0.09798191      -0.19647316      -0.02972812
Ti       1.97047269       1.97057450      12.02105429      -0.30627084       0.18442214      -0.00101944
Ti       0.78791578       2.36450576      16.53944323       0.07347442      -0.01868678       0.00857591
O        0.00000902       1.97050521      12.04996127      -0.41275462      -0.13323328       0.01807563
O        2.75885292       2.36457356      16.66613429      -0.00879909       0.01431873       0.01015946
O        1.97049401       3.94093312      12.21671404       0.23481088       0.25300838      -0.01439715
O        0.78828644       0.39409940      16.68069305       0.00809255       0.00390988      -0.00491672
O        1.97043419       1.97038596      10.19051065      -0.07365748       0.02738508       0.00635885
O        0.78825659       2.36452183      14.71843029       0.38425445      -0.13264218      -0.00167276
10
Lattice="3.940949890606662 0.0 0.0 0.0 3.940949890606662 0.0 0.0 0.0 26.940967945119528" Properties=species:S:1:pos:R:3:forces:R:3 tau=tau71 tau_p=7 tau_q=1 stage=B constraint=xy_fixed_z_free force_label=raw_dft energy=-15499.59707214287 free_energy=-15499.59707214287 stress="0.010698372532304011 -0.00025983860510144484 -0.004425519705261357 -0.00025983860510144484 0.009749915715802977 0.002290803249922632 -0.004425519705261357 0.002290803249922632 0.0003039101706310185" pbc="T T T"
Sr       0.00003612       0.00009431      10.52918729       0.00290020      -0.00208414       0.00652649
Sr       2.75856694       0.39408097      15.06165879       0.09996038      -0.19814824      -0.00796476
Ti       1.97047269       1.97057450      12.02340492      -0.30794822       0.18666595       0.00320642
Ti       0.78791578       2.36450576      16.53738262       0.07441852      -0.01866312       0.00392865
O        0.00000902       1.97050521      12.05530716      -0.42011620      -0.13571208      -0.00388057
O        2.75885292       2.36457356      16.66457747      -0.00887519       0.01442595       0.00186971
O        1.97049401       3.94093312      12.21720822       0.23545211       0.25415200      -0.00873455
O        0.78828644       0.39409940      16.67794568       0.00818716       0.00386925      -0.00774159
O        1.97043419       1.97038596      10.19285458      -0.07437919       0.02780237       0.00921355
O        0.78825659       2.36452183      14.71579325       0.39040016      -0.13230768       0.00357692
