10
Lattice="3.940949890606662 0.0 0.0 0.0 3.940949890606662 0.0 0.0 0.0 26.940967945119528" Properties=species:S:1:pos:R:3:forces:R:3 tau=tau34 tau_p=3 tau_q=4 stage=A constraint=rigid_scf force_label=raw_dft energy=-15497.079620488532 free_energy=-15497.079620488532 stress="0.011593576207123476 0.0010788351978593556 0.006147065233760329 0.0010788351978593556 0.0179215184910781 0.0068402742332359144 0.006147065233760329 0.0068402742332359144 -0.021774107844454996" pbc="T T T"
Sr       0.00003626       0.00009419      10.75260867      -0.00759092       0.00535612       0.60201095
Sr       1.18218684       1.57636577      14.64522241      -1.51694367      -0.90600739       5.07734433
Ti       1.97047258       1.97057465      12.38212169       1.54660417       0.78559851      -5.05392698
Ti       3.15248562       3.54679066      16.28444791       0.01224848      -0.03955796      -0.58143801
O        0.00000906       1.97050529      12.45001441       0.43819003      -0.35475747      -0.58192652
O        1.18247295       3.54685845      16.39256827       0.01841193       0.03953380      -0.11215178
O        1.97049386       3.94093294      12.44909065      -0.92331888       0.68847021      -1.03041304
O        3.15285647       1.57638429      16.37955485       0.12856467       0.00878906      -0.13731568
O        1.97043435       1.97038588      10.49176941       0.09693547       0.10007299       0.43011831
O        3.15282651       3.54680682      14.44792112       0.20689847      -0.32749786       1.38769842
