10
Lattice="3.940949890606662 0.0 0.0 0.0 3.940949890606662 0.0 0.0 0.0 26.940967945119528" Properties=species:S:1:pos:R:3:forces:R:3 tau=tau61 tau_p=6 tau_q=1 stage=B constraint=xy_fixed_z_free force_label=raw_dft energy=-15497.55500921511 free_energy=-15497.55500921511 stress="0.019886375787604927 -0.000953047604577031 -0.012003992661117633 -0.000953047604577031 0.0053097054886984294 0.0005747666671148567 -0.012003992661117633 0.0005747666671148567 -0.029114777977974616" pbc="T T T"
Sr       0.00003626       0.00009419      10.75260867      -0.00697232      -0.00716592       0.34231128
Sr       2.36447180       0.39408080      14.64522241       0.67751474      -0.57956445       4.48722602
Ti       1.97047258       1.97057465      12.38212169      -0.39645717       0.89303566      -2.60509186
Ti       0.39382070       2.36450570      16.28444791       0.13234368       0.02711151       0.14024365
O        0.00000906       1.97050529      12.45001441      -1.41351410      -0.81833097      -3.15262088
O        2.36475792       2.36457348      16.39256827      -0.01740534       0.08568536      -0.28044616
O        1.97049386       3.94093294      12.44909065      -0.10355658      -0.04365348      -1.28957124
O        0.39419154       0.39409932      16.37955485       0.03589389       0.00075308      -0.04870415
O        1.97043435       1.97038588      10.49176941      -0.18598923       0.06296400       0.31299247
O        0.39416159       2.36452185      14.44792112       1.27814295       0.37916547       2.09366113
10
Lattice="3.940949890606662 0.0 0.0 0.0 3.940949890606662 0.0 0.0 0.0 26.940967945119528" Properties=species:S:1:pos:R:3:forces:R:3 tau=tau61 tau_p=6 tau_q=1 stage=B constraint=xy_fixed_z_free force_label=raw_dft energy=-15498.264340331343 free_energy=-15498.264340331343 stress="0.015030240160815023 -0.0007014724180123811 -0.009201775619528904 -0.0007014724180123811 0.0036808938793346014 0.001282666188433634 -0.009201775619528904 0.001282666188433634 -0.02771091498433465" pbc="T T T"
Sr       0.00003612       0.00009431      10.75965407      -0.00473057      -0.00796991       0.32046024
Sr       2.36447194       0.39408097      14.73757752       0.42814935      -0.52859927       2.84447159
Ti       1.97047269       1.97057450      12.32850469      -0.35011972       0.65522739      -1.38620050
Ti       0.39382079       2.36450576      16.28733437       0.10765980       0.01905779       0.55471396
O        0.00000902       1.97050521      12.38512811      -1.04515858      -0.61562751      -2.26610014
O        2.36475793       2.36457356      16.38679627      -0.01850783       0.07460673      -0.03168756
O        1.97049401       3.94093312      12.42254905       0.03687168       0.11883665      -0.54940001
O        0.39419145       0.39409940      16.37855239       0.02980320       0.00086466       0.16670339
O        1.97043419       1.97038596      10.49821131      -0.15825551       0.06209008      -0.50231488
O        0.39416160       2.36452183      14.49101219       0.97428818       0.22151365       0.84935364
10
Lattice="3.940949890606662 0.0 0.0 0.0 3.940949890606662 0.0 0.0 0.0 26.940967945119528" Properties=species:S:1:pos:R:3:forces:R:3 tau=tau61 tau_p=6 tau_q=1 stage=B constraint=xy_fixed_z_free force_label=raw_dft energy=-15498.714942752587 free_energy=-15498.714942752587 stress="0.009584647345067076 -0.0005407948353524771 -0.0069807523483614315 -0.0005407948353524771 0.0013065382864288198 0.0017555173602613516 -0.0069807523483614315 0.0017555173602613516 -0.025455919881404797" pbc="T T T"
Sr       0.00003612       0.00009431      10.77073864      -0.00157300      -0.00954316       0.06278274
Sr       2.36447194       0.39408097      14.83916783       0.25837401      -0.46048689       1.30203518
Ti       1.97047269       1.97057450      12.27807220      -0.31121533       0.47903329      -0.56100031
Ti       0.39382079       2.36450576      16.30552228       0.08745427       0.01159465       0.39370840
O        0.00000902       1.97050521      12.30512726      -0.76105656      -0.45058660      -1.37296086
O        2.36475793       2.36457356      16.38515532      -0.01658619       0.06120717       0.35333180
O        1.97049401       3.94093312      12.40199283       0.12282648       0.21562454      -0.05274798
O        0.39419145       0.39409940      16.38381750       0.02341015       0.00051859       0.49934243
O        1.97043419       1.97038596      10.48271367      -0.13322608       0.05665374      -0.95434336
O        0.39416160       2.36452183      14.52301243       0.73159198       0.09598468       0.32985222
10
Lattice="3.940949890606662 0.0 0.0 0.0 3.940949890606662 0.0 0.0 0.0 26.940967945119528" Properties=species:S:1:pos:R:3:forces:R:3 tau=tau61 tau_p=6 tau_q=1 stage=B constraint=xy_fixed_z_free force_label=raw_dft energy=-15498.963184044176 free_energy=-15498.963184044176 stress="0.003615704688655441 -0.0004223525029917478 -0.005102201867663353 -0.0004223525029917478 -0.0018151976052493159 0.002019946753438794 -0.005102201867663353 0.002019946753438794 -0.022014665139637252" pbc="T T T"
Sr       0.00003612       0.00009431      10.77915171       0.00230705      -0.01091665      -0.45666443
Sr       2.36447194       0.39408097      14.95155856       0.14423734      -0.38087679      -0.11110225
Ti       1.97047269       1.97057450      12.22454121      -0.27820133       0.34408585      -0.35914017
Ti       0.39382079       2.36450576      16.33006667       0.06762798       0.00459019       0.23960779
O        0.00000902       1.97050521      12.20334596      -0.52522752      -0.30841231      -0.36277083
O        2.36475793       2.36457356      16.39834662      -0.01438044       0.04759061       0.73832981
O        1.97049401       3.94093312      12.38676888       0.16766601       0.26287190       0.24664078
O        0.39419145       0.39409940      16.40680877       0.01752001       0.00112974       0.80744646
O        1.97043419       1.97038596      10.43730318      -0.10646141       0.04569107      -0.77083678
O        0.39416160       2.36452183      14.55742840       0.52491231      -0.00575387       0.02848988
10
Lattice="3.940949890606662 0.0 0.0 0.0 3.940949890606662 0.0 0.0 0.0 26.940967945119528" Properties=species:S:1:pos:R:3:forces:R:3 tau=tau61 tau_p=6 tau_q=1 stage=B constraint=xy_fixed_z_free force_label=raw_dft energy=-15499.042606862662 free_energy=-15499.042606862662 stress="0.0021090080421131406 -0.0003837898831533708 -0.004436537596643751 -0.0003837898831533708 -0.0020805451560419576 0.0020585093732771705 -0.004436537596643751 0.0020585093732771705 -0.0197587518790922" pbc="T T T"
Sr       0.00003612       0.00009431      10.77004799       0.00362654      -0.01108840      -0.65067576
Sr       2.36447194       0.39408097      14.99371811       0.11183450      -0.34514592      -0.47511981
Ti       1.97047269       1.97057450      12.19197881      -0.26362961       0.29720358      -0.26294955
Ti       0.39382079       2.36450576      16.34501466       0.06108324       0.00201986       0.29299906
O        0.00000902       1.97050521      12.15466712      -0.44362945      -0.25750935      -0.01538677
O        2.36475793       2.36457356      16.42189743      -0.01318693       0.04188224       0.75548498
O        1.97049401       3.94093312      12.38588128       0.17542920       0.27138585       0.19144254
O        0.39419145       0.39409940      16.43582219       0.01551532       0.00195532       0.78276413
O        1.97043419       1.97038596      10.40300183      -0.09456595       0.03936333      -0.58533452
O        0.39416160       2.36452183      14.57329054       0.44752313      -0.04006653      -0.03322431
10
Lattice="3.940949890606662 0.0 0.0 0.0 3.940949890606662 0.0 0.0 0.0 26.940967945119528" Properties=species:S:1:pos:R:3:forces:R:3 tau=tau61 tau_p=6 tau_q=1 stage=B constraint=xy_fixed_z_free force_label=raw_dft energy=-15499.137463569907 free_energy=-15499.137463569907 stress="0.0020401462209731817 -0.0003461454209301933 -0.0038287172553817133 -0.0003461454209301933 -0.0006968816299363839 0.0020768725255811598 -0.0038287172553817133 0.0020768725255811598 -0.016013586966693638" pbc="T T T"
Sr       0.00003612       0.00009431      10.74372269       0.00450971      -0.01065311      -0.76350657
Sr       2.36447194       0.39408097      15.03018788       0.08575375      -0.31033884      -0.62701133
Ti       1.97047269       1.97057450      12.14890580      -0.24725374       0.25509971      -0.11510340
Ti       0.39382079       2.36450576      16.36911910       0.05552503      -0.00097805       0.35563268
O        0.00000902       1.97050521      12.10112039      -0.37057696      -0.21056461       0.23177518
O        2.36475793       2.36457356      16.46466138      -0.01161239       0.03607643       0.62515756
O        1.97049401       3.94093312      12.38728318       0.17903697       0.27648564      -0.00309561
O        0.39419145       0.39409940      16.48500901       0.01371092       0.00298762       0.60682071
O        1.97043419       1.97038596      10.35405434      -0.08201202       0.03231697      -0.34298490
O        0.39416160       2.36452183      14.59125620       0.37291820      -0.07043177       0.03231594
10
Lattice="3.940949890606662 0.0 0.0 0.0 3.940949890606662 0.0 0.0 0.0 26.940967945119528" Properties=species:S:1:pos:R:3:forces:R:3 tau=tau61 tau_p=6 tau_q=1 stage=B constraint=xy_fixed_z_free force_label=raw_dft energy=-15499.244090153074 free_energy=-15499.244090153074 stress="0.0038369806739185085 -0.00029748306732462236 -0.003211715337967682 -0.00029748306732462236 0.003099700108913349 0.0020860541017331544 -0.003211715337967682 0.0020860541017331544 -0.00996568275537485" pbc="T T T"
Sr       0.00003612       0.00009431      10.68717185       0.00491672      -0.00895387      -0.75072176
Sr       2.36447194       0.39408097      15.06284104       0.06332987      -0.27506176      -0.53814680
Ti       1.97047269       1.97057450      12.08913479      -0.22755317       0.21332469       0.06232508
Ti       0.39382079       2.36450576      16.41160852       0.05001850      -0.00384200       0.42847640
O        0.00000902       1.97050521      12.03631192      -0.29804845      -0.16340338       0.36648530
O        2.36475793       2.36457356      16.53720385      -0.00951848       0.02968519       0.31355117
O        1.97049401       3.94093312      12.38641966       0.17829623       0.27719783      -0.34070794
O        0.39419145       0.39409940      16.56532910       0.01172243       0.00399215       0.24743371
O        1.97043419       1.97038596      10.28112015      -0.06743438       0.02454452      -0.00735747
O        0.39416160       2.36452183      14.61817909       0.29427047      -0.09748286       0.21866204
10
Lattice="3.940949890606662 0.0 0.0 0.0 3.940949890606662 0.0 0.0 0.0 26.940967945119528" Properties=species:S:1:pos:R:3:forces:R:3 tau=tau61 tau_p=6 tau_q=1 stage=B constraint=xy_fixed_z_free force_label=raw_dft energy=-15499.307273353726 free_energy=-15499.307273353726 stress="0.0066649061287328195 -0.00025616597464064704 -0.0028848512269566773 -0.00025616597464064704 0.007426976949348366 0.002101662781191545 -0.0028848512269566773 0.002101662781191545 -0.004835936159255512" pbc="T T T"
Sr       0.00003612       0.00009431      10.62323153       0.00445187      -0.00711527      -0.56488988
Sr       2.36447194       0.39408097      15.07300566       0.05455829      -0.25801689      -0.27605600
Ti       1.97047269       1.97057450      12.04577654      -0.21562300       0.19318601       0.14604020
Ti       0.39382079       2.36450576      16.45615370       0.04849049      -0.00587574       0.41136468
O        0.00000902       1.97050521      11.99630976      -0.25803051      -0.13715113       0.31097956
O        2.36475793       2.36457356      16.60145559      -0.00802338       0.02584524       0.03120137
O        1.97049401       3.94093312      12.37612698       0.17323270       0.27236596      -0.57395584
O        0.39419145       0.39409940      16.63374312       0.01031629       0.00450689      -0.05192857
O        1.97043419       1.97038596      10.22408601      -0.05832959       0.02017493       0.19538996
O        0.39416160       2.36452183      14.64543106       0.24895683      -0.10792000       0.37185479
10
Lattice="3.940949890606662 0.0 0.0 0.0 3.940949890606662 0.0 0.0 0.0 26.940967945119528" Properties=species:S:1:pos:R:3:forces:R:3 tau=tau61 tau_p=6 tau_q=1 stage=B constraint=xy_fixed_z_free force_label=raw_dft energy=-15499.34838648938 free_energy=-15499.34838648938 stress="0.009356026098882413 -0.00021943967003266895 -0.002758145476059153 -0.00021943967003266895 0.010788351978593557 0.0021292075096475283 -0.002758145476059153 0.0021292075096475283 -0.001617793717981434" pbc="T T T"
Sr       0.00003612       0.00009431      10.56631898       0.00337689      -0.00522268      -0.30328090
Sr       2.36447194       0.39408097      15.06941948       0.05407904      -0.25367815      -0.00649975
Ti       1.97047269       1.97057450      12.02297030      -0.20952768       0.18694774       0.10885974
Ti       0.39382079       2.36450576      16.49598793       0.04841079      -0.00666661       0.30228383
O        0.00000902       1.97050521      11.98004067      -0.23934836      -0.12494533       0.18748150
O        2.36475793       2.36457356      16.64485987      -0.00701474       0.02392386      -0.11669157
O        1.97049401       3.94093312      12.35488786       0.16645553       0.26437008      -0.62719233
O        0.39419145       0.39409940      16.67755694       0.00924749       0.00461436      -0.19377787
O        1.97043419       1.97038596      10.19103122      -0.05316373       0.01855102       0.23983276
O        0.39416160       2.36452183      14.67224671       0.22748529      -0.10789403       0.40898461
10
Lattice="3.940949890606662 0.0 0.0 0.0 3.940949890606662 0.0 0.0 0.0 26.940967945119528" Properties=species:S:1:pos:R:3:forces:R:3 tau=tau61 tau_p=6 tau_q=1 stage=B constraint=xy_fixed_z_free force_label=raw_dft energy=-15499.381617983756 free_energy=-15499.381617983756 stress="0.011729463534172995 -0.0001772044197334942 -0.0026837747092279974 -0.0001772044197334942 0.013188415984724925 0.0021512432924123154 -0.0026837747092279974 0.0021512432924123154 0.00034706357854539274" pbc="T T T"
Sr       0.00003612       0.00009431      10.50983473       0.00201729      -0.00331595       0.00593616
Sr       2.36447194       0.39408097      15.06407109       0.05653702      -0.25247359       0.23595194
Ti       1.97047269       1.97057450      12.00833661      -0.20526454       0.18498419      -0.00546025
Ti       0.39382079       2.36450576      16.53827044       0.04930322      -0.00700034       0.10791717
O        0.00000902       1.97050521      11.97357005      -0.22602028      -0.11723793       0.06824865
O        2.36475793       2.36457356      16.67811362      -0.00594002       0.02251129      -0.15308091
O        1.97049401       3.94093312      12.31876981       0.15745770       0.25176036      -0.54026591
O        0.39419145       0.39409940      16.70870759       0.00803495       0.00444492      -0.21258935
O        1.97043419       1.97038596      10.16975838      -0.04892732       0.01818464       0.16210651
O        0.39416160       2.36452183      14.70588764       0.21280147      -0.10185734       0.33123599
10
Lattice="3.940949890606662 0.0 0.0 0.0 3.940949890606662 0.0 0.0 0.0 26.940967945119528" Properties=species:S:1:pos:R:3:forces:R:3 tau=tau61 tau_p=6 tau_q=1 stage=B constraint=xy_fixed_z_free force_label=raw_dft energy=-15499.400773573487 free_energy=-15499.400773573487 stress="0.012581513801078087 -0.00014690521843191228 -0.002615831045703238 -0.00014690521843191228 0.013605259542025476 0.0021310438248779272 -0.002615831045703238 0.0021310438248779272 0.000524267998278887" pbc="T T T"
Sr       0.00003612       0.00009431      10.47911608       0.00137425      -0.00221578       0.18109334
Sr       2.36447194       0.39408097      15.06794267       0.05776163      -0.24841973       0.31562117
Ti       1.97047269       1.97057450      12.00060100      -0.19981868       0.18190092      -0.10556358
Ti       0.39382079       2.36450576      16.56508554       0.04846709      -0.00723663      -0.02316024
O        0.00000902       1.97050521      11.97222445      -0.21716437      -0.11331649       0.03456385
O        2.36475793       2.36457356      16.69180326      -0.00528850       0.02156024      -0.09201027
O        1.97049401       3.94093312      12.28316131       0.14970017       0.23908637      -0.39305405
O        0.39419145       0.39409940      16.71947140       0.00703454       0.00425543      -0.13715601
O        1.97043419       1.97038596      10.16246572      -0.04599138       0.01860759       0.03326879
O        0.39416160       2.36452183      14.73344853       0.20392499      -0.09422193       0.18639675
10
Lattice="3.940949890606662 0.0 0.0 0.0 3.940949890606662 0.0 0.0 0.0 26.940967945119528" Properties=species:S:1:pos:R:3:forces:R:3 tau=tau61 tau_p=6 tau_q=1 stage=B constraint=xy_fixed_z_free force_label=raw_dft energy=-15499.416863664765 free_energy=-15499.416863664765 stress="0.012463071468717358 -0.00011844233236072926 -0.002479943718653719 -0.00011844233236072926 0.012926741064393081 0.0020520822699707747 -0.002479943718653719 0.0020520822699707747 -0.00011293338666953257" pbc="T T T"
Sr       0.00003612       0.00009431      10.45905212       0.00119736      -0.00150024       0.25882421
Sr       2.36447194       0.39408097      15.08586199       0.05611124      -0.23569714       0.27637868
Ti       1.97047269       1.97057450      11.98793187      -0.18895654       0.17230942      -0.16584001
Ti       0.39382079       2.36450576      16.58830928       0.04582349      -0.00754362      -0.10079676
O        0.00000902       1.97050521      11.96741808      -0.20501025      -0.10828895       0.05624442
O        2.36475793       2.36457356      16.70177486      -0.00490772       0.02020321       0.01340779
O        1.97049401       3.94093312      12.24145567       0.14036192       0.22293676      -0.22613752
O        0.39419145       0.39409940      16.72614177       0.00583409       0.00395127      -0.02161089
O        1.97043419       1.97038596      10.15456298      -0.04230287       0.01891998      -0.10314649
O        0.39416160       2.36452183      14.76281134       0.19184955      -0.08529043       0.01267657
10
Lattice="3.940949890606662 0.0 0.0 0.0 3.940949890606662 0.0 0.0 0.0 26.940967945119528" Properties=species:S:1:pos:R:3:forces:R:3 tau=tau61 tau_p=6 tau_q=1 stage=B constraint=xy_fixed_z_free force_label=raw_dft energy=-15499.429555190258 free_energy=-15499.429555190258 stress="0.011697328017641015 -9.640654959594242e-05 -0.0022816216737706375 -9.640654959594242e-05 0.011744154056016186 0.0019198675733820537 -0.0022816216737706375 0.0019198675733820537 -0.0008795949953610747" pbc="T T T"
Sr       0.00003612       0.00009431      10.44622732       0.00139714      -0.00118374       0.22975892
Sr       2.36447194       0.39408097      15.11659084       0.05183498      -0.21464778       0.15210518
Ti       1.97047269       1.97057450      11.96602011      -0.17342425       0.15626856      -0.16442333
Ti       0.39382079       2.36450576      16.60922491       0.04146804      -0.00740838      -0.10970692
O        0.00000902       1.97050521      11.95605921      -0.18938180      -0.10133129       0.10356352
O        2.36475793       2.36457356      16.71559364      -0.00465678       0.01821112       0.10476217
O        1.97049401       3.94093312      12.19888570       0.12984431       0.20491101      -0.09987887
O        0.39419145       0.39409940      16.73710591       0.00463904       0.00351547       0.07435116
O        1.97043419       1.97038596      10.13855118      -0.03771037       0.01851708      -0.17579892
O        0.39416160       2.36452183      14.79106116       0.17598918      -0.07685182      -0.11473291
10
Lattice="3.940949890606662 0.0 0.0 0.0 3.940949890606662 0.0 0.0 0.0 26.940967945119528" Properties=species:S:1:pos:R:3:forces:R:3 tau=tau61 tau_p=6 tau_q=1 stage=B constraint=xy_fixed_z_free force_label=raw_dft energy=-15499.439374826294 free_energy=-15499.439374826294 stress="0.010859968272579115 -7.896155490715285e-05 -0.0020557549004315725 -7.896155490715285e-05 0.010673582276693627 0.0017591899907221495 -0.0020557549004315725 0.0017591899907221495 -0.0011642238560729049" pbc="T T T"
Sr       0.00003612       0.00009431      10.43347814       0.00170490      -0.00110146       0.13553467
Sr       2.36447194       0.39408097      15.15428535       0.04667735      -0.18949442       0.01311494
Ti       1.97047269       1.97057450      11.93426856      -0.15581502       0.13704648      -0.11836845
Ti       0.39382079       2.36450576      16.63143357       0.03673335      -0.00665710      -0.07203511
O        0.00000902       1.97050521      11.93909120      -0.17215670      -0.09302843       0.13536858
O        2.36475793       2.36457356      16.73907168      -0.00441973       0.01584674       0.14126001
O        1.97049401       3.94093312      12.15658621       0.11843530       0.18624146      -0.03442836
O        0.39419145       0.39409940      16.75820896       0.00361060       0.00307144       0.11220654
O        1.97043419       1.97038596      10.11100254      -0.03268592       0.01730352      -0.15866252
O        0.39416160       2.36452183      14.81789375       0.15791561      -0.06922850      -0.15399031
10
Lattice="3.940949890606662 0.0 0.0 0.0 3.940949890606662 0.0 0.0 0.0 26.940967945119528" Properties=species:S:1:pos:R:3:forces:R:3 tau=tau61 tau_p=6 tau_q=1 stage=B constraint=xy_fixed_z_free force_label=raw_dft energy=-15499.445439427416 free_energy=-15499.445439427416 stress="0.010536776792028909 -6.702550590955998e-05 -0.0018684507469308841 -6.702550590955998e-05 0.010220012414785097 0.0016150392451358354 -0.0018684507469308841 0.0016150392451358354 -0.00070330873324278" pbc="T T T"
Sr       0.00003612       0.00009431      10.41771507       0.00187665      -0.00093665       0.04724556
Sr       2.36447194       0.39408097      15.18699331       0.04269960      -0.16803625      -0.06137532
Ti       1.97047269       1.97057450      11.90022426      -0.14112837       0.12103391      -0.05568444
Ti       0.39382079       2.36450576      16.65401700       0.03374264      -0.00582303      -0.02536033
O        0.00000902       1.97050521      11.92267097      -0.15798940      -0.08584399       0.12076909
O        2.36475793       2.36457356      16.76931891      -0.00426469       0.01373689       0.10894433
O        1.97049401       3.94093312      12.11943190       0.10822210       0.17032376      -0.02551743
O        0.39419145       0.39409940      16.78637353       0.00281819       0.00276059       0.08205676
O        1.97043419       1.97038596      10.07817787      -0.02840555       0.01582205      -0.08231592
O        0.39416160       2.36452183      14.84039713       0.14242857      -0.06303728      -0.10876229
10
Lattice="3.940949890606662 0.0 0.0 0.0 3.940949890606662 0.0 0.0 0.0 26.940967945119528" Properties=species:S:1:pos:R:3:forces:R:3 tau=tau61 tau_p=6 tau_q=1 stage=B constraint=xy_fixed_z_free force_label=raw_dft energy=-15499.447788314073 free_energy=-15499.447788314073 stress="0.010740607782603185 -6.059840260316382e-05 -0.0017757168277957396 -6.059840260316382e-05 0.010266838453160268 0.001532405059767885 -0.0017757168277957396 0.001532405059767885 -2.3872097995185745e-05" pbc="T T T"
Sr       0.00003612       0.00009431      10.40477830       0.00186765      -0.00081530       0.01240403
Sr       2.36447194       0.39408097      15.20351293       0.04118959      -0.15649945      -0.05799715
Ti       1.97047269       1.97057450      11.87793608      -0.13301397       0.11323987      -0.01690886
Ti       0.39382079       2.36450576      16.66974112       0.03210871      -0.00532295       0.00013730
O        0.00000902       1.97050521      11.91501627      -0.15112790      -0.08237172       0.07578249
O        2.36475793       2.36457356      16.79249577      -0.00407880       0.01244825       0.05271918
O        1.97049401       3.94093312      12.09531564       0.10208822       0.16093409      -0.03237867
O        0.39419145       0.39409940      16.80767176       0.00246774       0.00256596       0.03117077
O        1.97043419       1.97038596      10.05532682      -0.02592392       0.01494685      -0.01702713
O        0.39416160       2.36452183      14.85352528       0.13442242      -0.05912535      -0.04790222
10
Lattice="3.940949890606662 0.0 0.0 0.0 3.940949890606662 0.0 0.0 0.0 26.940967945119528" Properties=species:S:1:pos:R:3:forces:R:3 tau=tau61 tau_p=6 tau_q=1 stage=B constraint=xy_fixed_z_free force_label=raw_dft energy=-15499.448439754604 free_energy=-15499.448439754604 stress="0.01102064585523902 -5.876208737276491e-05 -0.00175827183310695 -5.876208737276491e-05 0.010361408687525813 0.0015057784889271008 -0.00175827183310695 0.0015057784889271008 0.0003213551653198081" pbc="T T T"
Sr       0.00003612       0.00009431      10.40017712       0.00186354      -0.00077956       0.00959561
Sr       2.36447194       0.39408097      15.20628448       0.04130811      -0.15330871      -0.03298520
Ti       1.97047269       1.97057450      11.87072946      -0.13055239       0.11138147      -0.00151926
Ti       0.39382079       2.36450576      16.67526654       0.03180120      -0.00501699       0.00235127
O        0.00000902       1.97050521      11.91600673      -0.15046456      -0.08214032       0.03857272
O        2.36475793       2.36457356      16.80150360      -0.00403946       0.01205513       0.01961495
O        1.97049401       3.94093312      12.08523547       0.09992130       0.15773795      -0.02818160
O        0.39419145       0.39409940      16.81520518       0.00233173       0.00249628       0.00389934
O        1.97043419       1.97038596      10.04781230      -0.02513536       0.01481778       0.00437627
O        0.39416160       2.36452183      14.85709908       0.13296614      -0.05724304      -0.01572435
10
Lattice="3.940949890606662 0.0 0.0 0.0 3.940949890606662 0.0 0.0 0.0 26.940967945119528" Properties=species:S:1:pos:R:3:forces:R:3 tau=tau61 tau_p=6 tau_q=1 stage=B constraint=xy_fixed_z_free force_label=raw_dft energy=-15499.448743161533 free_energy=-15499.448743161533 stress="0.0112189679001221 -5.876208737276491e-05 -0.0017775531430261385 -5.876208737276491e-05 0.010370590263677806 0.0015048603313119013 -0.0017775531430261385 0.0015048603313119013 0.00040949829637895545" pbc="T T T"
Sr       0.00003612       0.00009431      10.40168189       0.00189439      -0.00081375       0.01131620
Sr       2.36447194       0.39408097      15.20283300       0.04202314      -0.15399160      -0.01080223
Ti       1.97047269       1.97057450      11.87160754      -0.13089820       0.11236132       0.00143442
Ti       0.39382079       2.36450576      16.67437912       0.03218995      -0.00491055       0.00002108
O        0.00000902       1.97050521      11.92127435      -0.15286005      -0.08351072       0.01269739
O        2.36475793       2.36457356      16.80207706      -0.00407031       0.01207313       0.00313212
O        1.97049401       3.94093312      12.08300779       0.09981357       0.15768344      -0.01621183
O        0.39419145       0.39409940      16.81455166       0.00231322       0.00247392      -0.00698749
O        1.97043419       1.97038596      10.04872291      -0.02520761       0.01503504       0.00673732
O        0.39416160       2.36452183      14.85518464       0.13480165      -0.05640049      -0.00133697
