10
Lattice="3.940949890606662 0.0 0.0 0.0 3.940949890606662 0.0 0.0 0.0 26.940967945119528" Properties=species:S:1:pos:R:3:forces:R:3 tau=tau77 tau_p=7 tau_q=7 stage=A constraint=rigid_scf force_label=raw_dft energy=-15497.667152362128 free_energy=-15497.667152362128 stress="0.013619031906253468 0.0017830620887173353 -0.008986008579957034 0.0017830620887173353 0.01327655911578407 -0.008980499634265837 -0.008986008579957034 -0.008980499634265837 -0.017575373070147907" pbc="T T T"
Sr       0.00003626       0.00009419      10.75260867      -0.00146270      -0.00137940       0.52224916
Sr       2.75856679       2.75865074      14.64522241       1.26476344       1.26246410       4.16736999
Ti       1.97047258       1.97057465      12.38212169      -1.23564210      -1.23520681      -3.76056927
Ti       0.78791569       0.78812574      16.28444791       0.06120948       0.06046386      -0.40878895
O        0.00000906       1.97050529      12.45001441      -0.88809297       0.67652049      -0.88124175
O        2.75885291       0.78819352      16.39256827      -0.01931001      -0.07390867      -0.13449646
O        1.97049386       3.94093294      12.44909065       0.67648989      -0.88497782      -0.87435994
O        0.78828653       2.75866926      16.37955485      -0.07574033      -0.01726856      -0.09654390
O        1.97043435       1.97038588      10.49176941      -0.15260937      -0.15228721       0.39106582
O        0.78825658       0.78814190      14.44792112       0.37039466       0.36558002       1.07531530
