10
Lattice="3.940949890606662 0.0 0.0 0.0 3.940949890606662 0.0 0.0 0.0 26.940967945119528" Properties=species:S:1:pos:R:3:forces:R:3 tau=tau65 tau_p=6 tau_q=5 stage=A constraint=rigid_scf force_label=raw_dft energy=-15496.407225016303 free_energy=-15496.407225016303 stress="0.015398421364510004 0.0 -0.004942442442618648 0.0 0.018542193038952926 2.7544728455983548e-06 -0.004942442442618648 2.7544728455983548e-06 -0.026238190169554733" pbc="T T T"
Sr       0.00003626       0.00009419      10.75260867       0.00489512      -0.00004011       0.70506873
Sr       2.36447180       1.97046076      14.64522241       1.21594282      -0.00036330       6.61694507
Ti       1.97047258       1.97057465      12.38212169      -1.11032216       0.00047205      -7.39137651
Ti       0.39382070       3.94088565      16.28444791      -0.04236124       0.00010490      -1.06940485
O        0.00000906       1.97050529      12.45001441      -0.33659726      -0.00026251      -0.23298797
O        2.36475792       0.00000355      16.39256827       0.00053813       0.00002803      -0.10830618
O        1.97049386       3.94093294      12.44909065       0.54077936      -0.00022189      -0.34936793
O        0.39419154       1.97047928      16.37955485      -0.06463008      -0.00012804      -0.08682281
O        1.97043435       1.97038588      10.49176941      -0.04075867       0.00029619       0.43985250
O        0.39416159       3.94090181      14.44792112      -0.16748629       0.00011441       1.47639968
