10
Lattice="3.940949890606662 0.0 0.0 0.0 3.940949890606662 0.0 0.0 0.0 26.940967945119528" Properties=species:S:1:pos:R:3:forces:R:3 tau=tau48 tau_p=4 tau_q=8 stage=A constraint=rigid_scf force_label=raw_dft energy=-15497.433148882916 free_energy=-15497.433148882916 stress="0.019363025946941236 -0.0013074564440440192 0.009320217951889634 -0.0013074564440440192 0.0072093735945460945 -0.003261295849188452 0.009320217951889634 -0.003261295849188452 -0.023368029464441244" pbc="T T T"
Sr       0.00003626       0.00009419      10.75260867       0.00870910       0.01056106       0.47647709
Sr       1.57628183       3.15274573      14.64522241      -0.75467920       1.19246453       4.46744755
Ti       1.97047258       1.97057465      12.38212169       0.55599206      -1.47000535      -3.53942818
Ti       3.54658061       1.18222073      16.28444791      -0.08945639      -0.02282523      -0.22615783
O        0.00000906       1.97050529      12.45001441       1.06609687       1.12442363      -2.06407236
O        1.57656794       1.18228851      16.39256827       0.01471057      -0.13726991      -0.23553336
O        1.97049386       3.94093294      12.44909065      -0.13892287      -0.15998072      -0.88437593
O        3.54695145       3.15276425      16.37955485      -0.00069497      -0.01535926      -0.04389516
O        1.97043435       1.97038588      10.49176941       0.14692158      -0.10046663       0.38176254
O        3.54692150       1.18223689      14.44792112      -0.80867674      -0.42154213       1.66777589
