10
Lattice="3.940949890606662 0.0 0.0 0.0 3.940949890606662 0.0 0.0 0.0 26.940967945119528" Properties=species:S:1:pos:R:3:forces:R:3 tau=tau97 tau_p=9 tau_q=7 stage=B constraint=xy_fixed_z_free force_label=raw_dft energy=-15498.577899420592 free_energy=-15498.577899420592 stress="0.007480230091029934 0.001264303036129645 -0.003253950588266857 0.001264303036129645 0.014745611300103195 -0.016204563750655123 -0.003253950588266857 -0.016204563750655123 -0.01687665512498112" pbc="T T T"
Sr       0.00003626       0.00009419      10.75260867       0.00329821      -0.00583949       0.28954247
Sr       3.54675677       2.75865074      14.64522241       0.53039621       0.90673167       3.06656348
Ti       1.97047258       1.97057465      12.38212169      -0.75435138      -0.62007526      -1.57247435
Ti       1.57610567       0.78812574      16.28444791       0.01562331       0.16999851       0.03792249
O        0.00000906       1.97050529      12.45001441      -0.31598909       0.04360077      -0.78172798
O        3.54704288       0.78819352      16.39256827       0.00307812       0.04869798      -0.06894850
O        1.97049386       3.94093294      12.44909065       0.60618616      -1.94042801      -2.07059962
O        1.57647651       2.75866926      16.37955485      -0.04872626      -0.01117119      -0.14802175
O        1.97043435       1.97038588      10.49176941      -0.08877685      -0.28374566       0.25472742
O        1.57644656       0.78814190      14.44792112       0.04926157       1.69223094       0.99301661
10
Lattice="3.940949890606662 0.0 0.0 0.0 3.940949890606662 0.0 0.0 0.0 26.940967945119528" Properties=species:S:1:pos:R:3:forces:R:3 tau=tau97 tau_p=9 tau_q=7 stage=B constraint=xy_fixed_z_free force_label=raw_dft energy=-15498.891227213082 free_energy=-15498.891227213082 stress="0.006139719972838733 0.0010705717793225607 -0.003182334294281299 0.0010705717793225607 0.012376764652888608 -0.0138990699788893 -0.003182334294281299 -0.0138990699788893 -0.0170814042731706" pbc="T T T"
Sr       0.00003612       0.00009431      10.75856799       0.00351521      -0.00507330       0.26689902
Sr       3.54675692       2.75865092      14.70833784       0.47545920       0.67595870       2.18281233
Ti       1.97047269       1.97057450      12.34975774      -0.62366632      -0.56271987      -0.96916345
Ti       1.57610576       0.78812580      16.28522842       0.01532840       0.15186067       0.18689117
O        0.00000902       1.97050521      12.43392516      -0.35420031       0.15562630      -0.43467121
O        3.54704290       0.78819359      16.39114925       0.00163136       0.04314337       0.06201244
O        1.97049401       3.94093312      12.40647414       0.53097908      -1.64336892      -1.64637454
O        1.57647643       2.75866935      16.37650826      -0.04546096      -0.01459615       0.00233893
O        1.97043419       1.97038596      10.49701211      -0.08567841      -0.26215482      -0.22678595
O        1.57644658       0.78814187      14.46835903       0.08209275       1.46132402       0.57604075
10
Lattice="3.940949890606662 0.0 0.0 0.0 3.940949890606662 0.0 0.0 0.0 26.940967945119528" Properties=species:S:1:pos:R:3:forces:R:3 tau=tau97 tau_p=9 tau_q=7 stage=B constraint=xy_fixed_z_free force_label=raw_dft energy=-15499.125532738652 free_energy=-15499.125532738652 stress="0.004378693666886185 0.0009181576151994518 -0.0031162269459869387 0.0009181576151994518 0.00949558605639273 -0.011767107996396173 -0.0031162269459869387 -0.011767107996396173 -0.01684911039652514" pbc="T T T"
Sr       0.00003612       0.00009431      10.76691577       0.00445932      -0.00290380       0.12296224
Sr       3.54675692       2.75865092      14.77776451       0.42264231       0.48890478       1.28941723
Ti       1.97047269       1.97057450      12.31858370      -0.51307983      -0.51576047      -0.56893834
Ti       1.57610576       0.78812580      16.29080127       0.01567936       0.13336415       0.20139400
O        0.00000902       1.97050521      12.41981711      -0.37851318       0.23838446      -0.13957928
O        3.54704290       0.78819359      16.39286357       0.00027151       0.03765072       0.23568737
O        1.97049401       3.94093312      12.35451016       0.45245116      -1.36526503      -1.15473591
O        1.57647643       2.75866935      16.37633247      -0.04153771      -0.01627071       0.20017992
O        1.97043419       1.97038596      10.49074695      -0.07961472      -0.23833124      -0.51188273
O        1.57644658       0.78814187      14.48698446       0.11724205       1.24022715       0.32549575
10
Lattice="3.940949890606662 0.0 0.0 0.0 3.940949890606662 0.0 0.0 0.0 26.940967945119528" Properties=species:S:1:pos:R:3:forces:R:3 tau=tau97 tau_p=9 tau_q=7 stage=B constraint=xy_fixed_z_free force_label=raw_dft energy=-15499.312074258181 free_energy=-15499.312074258181 stress="0.0012817480308184345 0.000760234505385146 -0.002992275667935013 0.000760234505385146 0.0047946190665715364 -0.009080578814322577 -0.002992275667935013 -0.009080578814322577 -0.016276180044640678" pbc="T T T"
Sr       0.00003612       0.00009431      10.77760890       0.00618427       0.00143133      -0.23680349
Sr       3.54675692       2.75865092      14.88190450       0.35183516       0.29347780       0.09771195
Ti       1.97047269       1.97057450      12.27154334      -0.38610668      -0.45950704      -0.25104611
Ti       1.57610576       0.78812580      16.30300222       0.01695617       0.10699800       0.21930662
O        0.00000902       1.97050521      12.40385379      -0.38867366       0.30639656       0.14025651
O        3.54704290       0.78819359      16.40455162      -0.00201446       0.03047143       0.48861527
O        1.97049401       3.94093312      12.26843103       0.34275068      -1.01437964      -0.40433014
O        1.57647643       2.75866935      16.38518327      -0.03540049      -0.01713615       0.49191348
O        1.97043419       1.97038596      10.46462967      -0.06684688      -0.20164288      -0.63036353
O        1.57644658       0.78814187      14.51461161       0.16131538       0.95389059       0.08473919
10
Lattice="3.940949890606662 0.0 0.0 0.0 3.940949890606662 0.0 0.0 0.0 26.940967945119528" Properties=species:S:1:pos:R:3:forces:R:3 tau=tau97 tau_p=9 tau_q=7 stage=B constraint=xy_fixed_z_free force_label=raw_dft energy=-15499.359155530601 free_energy=-15499.359155530601 stress="0.0004526517042933297 0.0007078995213187773 -0.002937186211023046 0.0007078995213187773 0.0032475234849604607 -0.008049487812453593 -0.002937186211023046 -0.008049487812453593 -0.01508808409057259" pbc="T T T"
Sr       0.00003612       0.00009431      10.77499890       0.00679568       0.00334989      -0.42239034
Sr       3.54675692       2.75865092      14.92518711       0.32276292       0.23181349      -0.29687268
Ti       1.97047269       1.97057450      12.24561615      -0.34076810      -0.43931231      -0.21127192
Ti       1.57610576       0.78812580      16.31307487       0.01774730       0.09726175       0.26509771
O        0.00000902       1.97050521      12.40064794      -0.38752258       0.32089244       0.15669023
O        3.54704290       0.78819359      16.42164653      -0.00310229       0.02763293       0.52826425
O        1.97049401       3.94093312      12.22491301       0.29621628      -0.87842022      -0.09195088
O        1.57647643       2.75866935      16.40128109      -0.03237456      -0.01688366       0.54722151
O        1.97043419       1.97038596      10.43972930      -0.05931432      -0.18350786      -0.50423087
O        1.57644658       0.78814187      14.52822507       0.17955967       0.83717382       0.02944324
10
Lattice="3.940949890606662 0.0 0.0 0.0 3.940949890606662 0.0 0.0 0.0 26.940967945119528" Properties=species:S:1:pos:R:3:forces:R:3 tau=tau97 tau_p=9 tau_q=7 stage=B constraint=xy_fixed_z_free force_label=raw_dft energy=-15499.411809286268 free_energy=-15499.411809286268 stress="0.0008832676258218725 0.0006583190100980068 -0.0028811785964958795 0.0006583190100980068 0.002803135199203926 -0.007076240740342175 -0.0028811785964958795 -0.007076240740342175 -0.012564068806389297" pbc="T T T"
Sr       0.00003612       0.00009431      10.75853105       0.00698337       0.00486967      -0.56031794
Sr       3.54675692       2.75865092      14.96361084       0.29396657       0.18084703      -0.51868150
Ti       1.97047269       1.97057450      12.20972319      -0.29866603      -0.42016377      -0.13292449
Ti       1.57610576       0.78812580      16.33202803       0.01909764       0.09027760       0.30742963
O        0.00000902       1.97050521      12.40063029      -0.38457661       0.32829388       0.04386585
O        3.54704290       0.78819359      16.45540738      -0.00427086       0.02470213       0.45678656
O        1.97049401       3.94093312      12.17579177       0.24966569      -0.74951000       0.15408596
O        1.57647643       2.75866935      16.43456254      -0.02883466      -0.01595601       0.48716748
O        1.97043419       1.97038596      10.40041244      -0.05027278      -0.16260916      -0.29765687
O        1.57644658       0.78814187      14.54462244       0.19690768       0.71924811       0.06024558
10
Lattice="3.940949890606662 0.0 0.0 0.0 3.940949890606662 0.0 0.0 0.0 26.940967945119528" Properties=species:S:1:pos:R:3:forces:R:3 tau=tau97 tau_p=9 tau_q=7 stage=B constraint=xy_fixed_z_free force_label=raw_dft energy=-15499.47104819683 free_energy=-15499.47104819683 stress="0.003136426413521327 0.0006023113955708403 -0.00282976177004471 0.0006023113955708403 0.003958177479124836 -0.006211336266824291 -0.00282976177004471 -0.006211336266824291 -0.008503975831977323" pbc="T T T"
Sr       0.00003612       0.00009431      10.72169119       0.00653729       0.00573176      -0.59225001
Sr       3.54675692       2.75865092      14.99235090       0.26830413       0.14239386      -0.50571697
Ti       1.97047269       1.97057450      12.16421281      -0.26147142      -0.40165362      -0.00842756
Ti       1.57610576       0.78812580      16.36354725       0.02058862       0.08502252       0.34070716
O        0.00000902       1.97050521      12.40096323      -0.37825453       0.32832293      -0.19017730
O        3.54704290       0.78819359      16.50823388      -0.00530650       0.02191608       0.25665189
O        1.97049401       3.94093312      12.12384022       0.20608060      -0.63369980       0.28510860
O        1.57647643       2.75866935      16.48779362      -0.02518935      -0.01436681       0.29001041
O        1.97043419       1.97038596      10.34637908      -0.04075044      -0.13998140      -0.03951220
O        1.57644658       0.78814187      14.56630778       0.20946160       0.60631421       0.16360649
10
Lattice="3.940949890606662 0.0 0.0 0.0 3.940949890606662 0.0 0.0 0.0 26.940967945119528" Properties=species:S:1:pos:R:3:forces:R:3 tau=tau97 tau_p=9 tau_q=7 stage=B constraint=xy_fixed_z_free force_label=raw_dft energy=-15499.517110675039 free_energy=-15499.517110675039 stress="0.006624507193664045 0.0005426311505828759 -0.002804053356819126 0.0005426311505828759 0.006466584083849739 -0.005695331687082199 -0.002804053356819126 -0.005695331687082199 -0.004192307671000696" pbc="T T T"
Sr       0.00003612       0.00009431      10.67055617       0.00552324       0.00523374      -0.46336447
Sr       3.54675692       2.75865092      15.00061371       0.25415895       0.12548629      -0.27013141
Ti       1.97047269       1.97057450      12.12503499      -0.24084449      -0.38957586       0.08397274
Ti       1.57610576       0.78812580      16.40212737       0.02205467       0.08334437       0.31968917
O        0.00000902       1.97050521      12.39573752      -0.36814701       0.32082405      -0.41656319
O        3.54704290       0.78819359      16.56343381      -0.00565231       0.01973347       0.02280389
O        1.97049401       3.94093312      12.08716788       0.17753416      -0.55949596       0.25225530
O        1.57647643       2.75866935      16.54442228      -0.02251078      -0.01276424       0.04901423
O        1.97043419       1.97038596      10.29581175      -0.03397507      -0.12269253       0.15672031
O        1.57644658       0.78814187      14.59041448       0.21185890       0.52990668       0.26560318
10
Lattice="3.940949890606662 0.0 0.0 0.0 3.940949890606662 0.0 0.0 0.0 26.940967945119528" Properties=species:S:1:pos:R:3:forces:R:3 tau=tau97 tau_p=9 tau_q=7 stage=B constraint=xy_fixed_z_free force_label=raw_dft energy=-15499.543378912338 free_energy=-15499.543378912338 stress="0.00936153504457361 0.0004902961665165072 -0.0028068078296647238 0.0004902961665165072 0.008809722317838739 -0.005545671995804688 -0.0028068078296647238 -0.005545671995804688 -0.0015112874346182976" pbc="T T T"
Sr       0.00003612       0.00009431      10.62682505       0.00440276       0.00382786      -0.26070909
Sr       3.54675692       2.75865092      14.99415510       0.25186784       0.12575600      -0.01581100
Ti       1.97047269       1.97057450      12.10596677      -0.23736527      -0.38709141       0.09010174
Ti       1.57610576       0.78812580      16.43399657       0.02329702       0.08563008       0.22400633
O        0.00000902       1.97050521      12.38215700      -0.35635644       0.31037406      -0.49165020
O        3.54704290       0.78819359      16.59761352      -0.00551553       0.01812679      -0.09721572
O        1.97049401       3.94093312      12.07453580       0.16616268      -0.52973133       0.15075483
O        1.57647643       2.75866935      16.58028395      -0.02116121      -0.01156045      -0.08178216
O        1.97043419       1.97038596      10.26873288      -0.03144536      -0.11398780       0.19930343
O        1.57644658       0.78814187      14.61105332       0.20611377       0.49865569       0.28300184
10
Lattice="3.940949890606662 0.0 0.0 0.0 3.940949890606662 0.0 0.0 0.0 26.940967945119528" Properties=species:S:1:pos:R:3:forces:R:3 tau=tau97 tau_p=9 tau_q=7 stage=B constraint=xy_fixed_z_free force_label=raw_dft energy=-15499.561440604437 free_energy=-15499.561440604437 stress="0.01110236188299177 0.00043428855198934064 -0.0028086441448951223 0.00043428855198934064 0.010610229401244864 -0.005500682272659915 -0.0028086441448951223 -0.005500682272659915 -5.968024498796436e-05" pbc="T T T"
Sr       0.00003612       0.00009431      10.58933366       0.00318071       0.00238830      -0.04388976
Sr       3.54675692       2.75865092      14.98672383       0.25296416       0.13059327       0.17986024
Ti       1.97047269       1.97057450      12.09688793      -0.23879763      -0.38657025       0.02929515
Ti       1.57610576       0.78812580      16.46213356       0.02411001       0.08754632       0.09196090
O        0.00000902       1.97050521      12.35914442      -0.34124144       0.29818626      -0.44328004
O        3.54704290       0.78819359      16.61840871      -0.00521368       0.01649723      -0.12263674
O        1.97049401       3.94093312      12.07205427       0.16093512      -0.51375038       0.06452800
O        1.57647643       2.75866935      16.60274561      -0.02032688      -0.01033481      -0.11710578
O        1.97043419       1.97038596      10.25538145      -0.03093011      -0.10813006       0.13996494
O        1.57644658       0.78814187      14.63250651       0.19531977       0.48357411       0.22130282
10
Lattice="3.940949890606662 0.0 0.0 0.0 3.940949890606662 0.0 0.0 0.0 26.940967945119528" Properties=species:S:1:pos:R:3:forces:R:3 tau=tau97 tau_p=9 tau_q=7 stage=B constraint=xy_fixed_z_free force_label=raw_dft energy=-15499.573309529795 free_energy=-15499.573309529795 stress="0.011600921468045073 0.00038287172553817133 -0.0027792631012087403 0.00038287172553817133 0.01142004441785078 -0.005415293614446366 -0.0027792631012087403 -0.005415293614446366 0.0002699383388686388" pbc="T T T"
Sr       0.00003612       0.00009431      10.56448178       0.00231142       0.00159820       0.10396718
Sr       3.54675692       2.75865092      14.98824701       0.25139038       0.13167031       0.24948751
Ti       1.97047269       1.97057450      12.09141260      -0.23755065      -0.38192735      -0.04643387
Ti       1.57610576       0.78812580      16.48287353       0.02378682       0.08728098      -0.01283598
O        0.00000902       1.97050521      12.33160352      -0.32461823       0.28663661      -0.32333371
O        3.54704290       0.78819359      16.62836446      -0.00490052       0.01476379      -0.08009552
O        1.97049401       3.94093312      12.07156273       0.15734020      -0.49927455       0.03734219
O        1.57647643       2.75866935      16.61389614      -0.01955041      -0.00943415      -0.07999756
O        1.97043419       1.97038596      10.25030737      -0.03115020      -0.10320357       0.03082753
O        1.57644658       0.78814187      14.65257081       0.18294119       0.47188973       0.12107248
10
Lattice="3.940949890606662 0.0 0.0 0.0 3.940949890606662 0.0 0.0 0.0 26.940967945119528" Properties=species:S:1:pos:R:3:forces:R:3 tau=tau97 tau_p=9 tau_q=7 stage=B constraint=xy_fixed_z_free force_label=raw_dft energy=-15499.582650653649 free_energy=-15499.582650653649 stress="0.011285075248416461 0.00033604568716299934 -0.002698465231071189 0.00033604568716299934 0.011462279668149956 -0.00520778999341129 -0.002698465231071189 -0.00520778999341129 1.744499468878958e-05" pbc="T T T"
Sr       0.00003612       0.00009431      10.54740968       0.00174604       0.00134752       0.17543228
Sr       3.54675692       2.75865092      15.00209255       0.24308598       0.12621211       0.21005373
Ti       1.97047269       1.97057450      12.08218813      -0.22917117      -0.36966139      -0.10362600
Ti       1.57610576       0.78812580      16.50032410       0.02289259       0.08469060      -0.07107943
O        0.00000902       1.97050521      12.29970769      -0.30519946       0.27409297      -0.17914881
O        3.54704290       0.78819359      16.63585352      -0.00466784       0.01277993      -0.00948711
O        1.97049401       3.94093312      12.06737068       0.15167169      -0.47709133       0.05772049
O        1.57647643       2.75866935      16.62222541      -0.01849986      -0.00884459      -0.01057649
O        1.97043419       1.97038596      10.24459558      -0.03106535      -0.09686580      -0.07950314
O        1.57644658       0.78814187      14.67355263       0.16920738       0.45333948       0.01021448
10
Lattice="3.940949890606662 0.0 0.0 0.0 3.940949890606662 0.0 0.0 0.0 26.940967945119528" Properties=species:S:1:pos:R:3:forces:R:3 tau=tau97 tau_p=9 tau_q=7 stage=B constraint=xy_fixed_z_free force_label=raw_dft energy=-15499.589225740332 free_energy=-15499.589225740332 stress="0.010559730732408894 0.0003002375401702207 -0.0025763502682496615 0.0003002375401702207 0.010977492447324644 -0.004913061398932266 -0.0025763502682496615 -0.004913061398932266 -0.0003773627798469746" pbc="T T T"
Sr       0.00003612       0.00009431      10.53762377       0.00153469       0.00165168       0.16198978
Sr       3.54675692       2.75865092      15.02492077       0.22894337       0.11605497       0.10014653
Ti       1.97047269       1.97057450      12.06725738      -0.21506841      -0.35094581      -0.11704613
Ti       1.57610576       0.78812580      16.51409203       0.02171939       0.08045393      -0.07207831
O        0.00000902       1.97050521      12.26984716      -0.28618692       0.26137012      -0.06897473
O        3.54704290       0.78819359      16.64485281      -0.00453465       0.01090148       0.04769268
O        1.97049401       3.94093312      12.05895342       0.14425740      -0.45032049       0.09609190
O        1.57647643       2.75866935      16.63172902      -0.01717111      -0.00860625       0.04881085
O        1.97043419       1.97038596      10.23387506      -0.03016393      -0.08952735      -0.13408946
O        1.57644658       0.78814187      14.69216855       0.15667069       0.42896774      -0.06254337
10
Lattice="3.940949890606662 0.0 0.0 0.0 3.940949890606662 0.0 0.0 0.0 26.940967945119528" Properties=species:S:1:pos:R:3:forces:R:3 tau=tau97 tau_p=9 tau_q=7 stage=B constraint=xy_fixed_z_free force_label=raw_dft energy=-15499.593256834736 free_energy=-15499.593256834736 stress="0.009951910391146858 0.00027728359979023443 -0.0024505626749673367 0.00027728359979023443 0.01048260549273214 -0.004628432538220436 -0.0024505626749673367 -0.004628432538220436 -0.0004691785413669198" pbc="T T T"
Sr       0.00003612       0.00009431      10.53174839       0.00158843       0.00216076       0.10253842
Sr       3.54675692       2.75865092      15.04771427       0.21394689       0.10599193      -0.00451614
Ti       1.97047269       1.97057450      12.04912335      -0.20030308      -0.33149027      -0.09412706
Ti       1.57610576       0.78812580      16.52506061       0.02042896       0.07610183      -0.03915919
O        0.00000902       1.97050521      12.24640486      -0.27065669       0.25005495      -0.01849857
O        3.54704290       0.78819359      16.65683936      -0.00440918       0.00945883       0.06412434
O        1.97049401       3.94093312      12.04986131       0.13723237      -0.42664526       0.11414155
O        1.57647643       2.75866935      16.64410026      -0.01582103      -0.00853143       0.06801159
O        1.97043419       1.97038596      10.21832333      -0.02871279      -0.08245528      -0.11619664
O        1.57644658       0.78814187      14.70614422       0.14670612       0.40535395      -0.07631831
10
Lattice="3.940949890606662 0.0 0.0 0.0 3.940949890606662 0.0 0.0 0.0 26.940967945119528" Properties=species:S:1:pos:R:3:forces:R:3 tau=tau97 tau_p=9 tau_q=7 stage=B constraint=xy_fixed_z_free force_label=raw_dft energy=-15499.595450480447 free_energy=-15499.595450480447 stress="0.009706762307888602 0.00026351123556224264 -0.002351401652525796 0.00026351123556224264 0.010319173437226638 -0.004429192335722155 -0.002351401652525796 -0.004429192335722155 -0.00019281309919188483" pbc="T T T"
Sr       0.00003612       0.00009431      10.52723124       0.00168973       0.00257984       0.04691518
Sr       3.54675692       2.75865092      15.06310807       0.20255485       0.09934434      -0.05504578
Ti       1.97047269       1.97057450      12.03266920      -0.18950162      -0.31629608      -0.05447885
Ti       1.57610576       0.78812580      16.53382977       0.01957201       0.07344202      -0.00671084
O        0.00000902       1.97050521      12.22977850      -0.25978812       0.24129160      -0.01079246
O        3.54704290       0.78819359      16.66936486      -0.00428371       0.00847873       0.04572990
O        1.97049401       3.94093312      12.04450856       0.13264758      -0.41183519       0.09580496
O        1.57647643       2.75866935      16.65706967      -0.01474553      -0.00855457       0.05068904
O        1.97043419       1.97038596      10.20257667      -0.02742750      -0.07697909      -0.06198107
O        1.57644658       0.78814187      14.71518342       0.13928231       0.38852865      -0.05013034
10
Lattice="3.940949890606662 0.0 0.0 0.0 3.940949890606662 0.0 0.0 0.0 26.940967945119528" Properties=species:S:1:pos:R:3:forces:R:3 tau=tau97 tau_p=9 tau_q=7 stage=B constraint=xy_fixed_z_free force_label=raw_dft energy=-15499.596451451203 free_energy=-15499.596451451203 stress="0.009705844150273405 0.00025616597464064704 -0.0022963121956138285 0.00025616597464064704 0.010436697611972167 -0.004347476307969404 -0.0022963121956138285 -0.004347476307969404 0.00015608679458390678" pbc="T T T"
Sr       0.00003612       0.00009431      10.52485343       0.00175709       0.00282590       0.01786942
Sr       3.54675692       2.75865092      15.06851281       0.19680818       0.09703678      -0.05291459
Ti       1.97047269       1.97057450      12.02278802      -0.18449079      -0.30792097      -0.01856594
Ti       1.57610576       0.78812580      16.53902906       0.01911975       0.07268560       0.00810257
O        0.00000902       1.97050521      12.21992146      -0.25401548       0.23610235      -0.01560737
O        3.54704290       0.78819359      16.67768021      -0.00418807       0.00795268       0.01781286
O        1.97049401       3.94093312      12.04505922       0.13147902      -0.40799705       0.05485654
O        1.57647643       2.75866935      16.66583761      -0.01414595      -0.00859905       0.02202561
O        1.97043419       1.97038596      10.19248575      -0.02682278      -0.07399198      -0.01481341
O        1.57644658       0.78814187      14.71915240       0.13449878       0.38190575      -0.01876597
10
Lattice="3.940949890606662 0.0 0.0 0.0 3.940949890606662 0.0 0.0 0.0 26.940967945119528" Properties=species:S:1:pos:R:3:forces:R:3 tau=tau97 tau_p=9 tau_q=7 stage=B constraint=xy_fixed_z_free force_label=raw_dft energy=-15499.596858533507 free_energy=-15499.596858533507 stress="0.00974440677011178 0.00025616597464064704 -0.0022834579890010365 0.00025616597464064704 0.010614820189320862 -0.004365839460273392 -0.0022834579890010365 -0.004365839460273392 0.0003213551653198081" pbc="T T T"
Sr       0.00003612       0.00009431      10.52600055       0.00183217       0.00293286       0.00888702
Sr       3.54675692       2.75865092      15.06629328       0.19620371       0.09797780      -0.02903804
Ti       1.97047269       1.97057450      12.02096098      -0.18463015      -0.30633640      -0.00049365
Ti       1.57610576       0.78812580      16.53952470       0.01897937       0.07324122       0.00856152
O        0.00000902       1.97050521      12.21674190      -0.25291530       0.23471215      -0.01531658
O        3.54704290       0.78819359      16.67929458      -0.00412636       0.00784032       0.00077416
O        1.97049401       3.94093312      12.04987164       0.13310473      -0.41275539       0.01780489
O        1.57647643       2.75866935      16.66774904      -0.01402434      -0.00863736       0.00360186
O        1.97043419       1.97038596      10.19039370      -0.02693411      -0.07347313       0.00666841
O        1.57644658       0.78814187      14.71848959       0.13251029       0.38449794      -0.00144959
10
Lattice="3.940949890606662 0.0 0.0 0.0 3.940949890606662 0.0 0.0 0.0 26.940967945119528" Properties=species:S:1:pos:R:3:forces:R:3 tau=tau97 tau_p=9 tau_q=7 stage=B constraint=xy_fixed_z_free force_label=raw_dft energy=-15499.597010509084 free_energy=-15499.597010509084 stress="0.00973155256349899 0.00025983860510144484 -0.0022917214075378316 0.00025983860510144484 0.0107185719998384 -0.004424601547646158 -0.0022917214075378316 -0.004424601547646158 0.0003020738554006196" pbc="T T T"
Sr       0.00003612       0.00009431      10.52922350       0.00191084       0.00296731       0.00676997
Sr       3.54675692       2.75865092      15.06157041       0.19798934       0.10003288      -0.00759427
Ti       1.97047269       1.97057450      12.02349780      -0.18697628      -0.30811175       0.00276008
Ti       1.57610576       0.78812580      16.53732935       0.01895314       0.07419792       0.00358695
O        0.00000902       1.97050521      12.21733139      -0.25415638       0.23540506      -0.00893998
O        3.54704290       0.78819359      16.67688356      -0.00409577       0.00793622      -0.00358695
O        1.97049401       3.94093312      12.05533753       0.13566426      -0.42031212      -0.00373658
O        1.57647643       2.75866935      16.66547434      -0.01415444      -0.00868004      -0.00193527
O        1.97043419       1.97038596      10.19293230      -0.02737402      -0.07424112       0.00923360
O        1.57644658       0.78814187      14.71573979       0.13223903       0.39080588       0.00344271
