Sr Ti O
 1.0000000000000000
     3.9409498906066620    0.0000000000000000    0.0000000000000000
     0.0000000000000000    3.9409498906066620    0.0000000000000000
     0.0000000000000000    0.0000000000000000   26.9409679451195281
 Sr  Ti  O
   2   2   6
Cartesian
  0.0000361212000000  0.0000943054000000 10.4200363351000007
  3.1526619275000001  1.1822709513000000 15.1936359524999993
  1.9704726885999999  1.9705745045000000 11.8854023968000000
  1.1820107721999999  3.1526957466000001 16.6558699704999995
  0.0000090208000000  1.9705052130000000 12.0510989859999995
  3.1529479114000001  3.1527635419000002 16.7944183898000006
  1.9704940097000001  3.9409331233999998 11.9813840749999994
  1.1823814360000000  1.1822893808999999 16.7914206849999985
  1.9704341934000000  1.9703859550000000 10.0635850640999998
  1.1823515838000000  3.1527118179000002 14.8384681082000007
