10
Lattice="3.940949890606662 0.0 0.0 0.0 3.940949890606662 0.0 0.0 0.0 26.940967945119528" Properties=species:S:1:pos:R:3:forces:R:3 tau=tau83 tau_p=8 tau_q=3 stage=B constraint=xy_fixed_z_free force_label=raw_dft energy=-15498.235159659625 free_energy=-15498.235159659625 stress="0.009613110231138259 -0.0019079315243844606 -0.006844865021311912 -0.0019079315243844606 0.014477509276464955 0.012765145324117978 -0.006844865021311912 0.012765145324117978 -0.01571059495367782" pbc="T T T"
Sr       0.00003626       0.00009419      10.75260867       0.00344965       0.00622721       0.40429672
Sr       3.15266178       1.18227078      14.64522241       1.03336030      -1.04629578       3.41205444
Ti       1.97047258       1.97057465      12.38212169      -1.21106467       0.88927362      -2.45981013
Ti       1.18201068       3.15269568      16.28444791       0.04610991      -0.12248324      -0.18956332
O        0.00000906       1.97050529      12.45001441      -0.66911828      -0.35502332      -0.77395939
O        3.15294790       3.15276346      16.39256827      -0.00977508       0.00315937      -0.08528889
O        1.97049386       3.94093294      12.44909065       0.83219179       1.45430311      -1.44287815
O        1.18238152       1.18228930      16.37955485      -0.07987903       0.01426242      -0.12630313
O        1.97043435       1.97038588      10.49176941      -0.14848712       0.22281386       0.32617683
O        1.18235157       3.15271183      14.44792112       0.20321228      -1.06623751       0.93527477
10
Lattice="3.940949890606662 0.0 0.0 0.0 3.940949890606662 0.0 0.0 0.0 26.940967945119528" Properties=species:S:1:pos:R:3:forces:R:3 tau=tau83 tau_p=8 tau_q=3 stage=B constraint=xy_fixed_z_free force_label=raw_dft energy=-15498.599548389428 free_energy=-15498.599548389428 stress="0.007841984191418516 -0.0017123639523469773 -0.006039640792781993 -0.0017123639523469773 0.011661519870648234 0.010844359593120724 -0.006039640792781993 0.010844359593120724 -0.01763138068467507" pbc="T T T"
Sr       0.00003612       0.00009431      10.76092984       0.00328613       0.00607989       0.43121437
Sr       3.15266193       1.18227095      14.71544864       0.84531753      -0.79436315       2.39665535
Ti       1.97047269       1.97057450      12.33149484      -0.93813872       0.70890122      -1.11446858
Ti       1.18201077       3.15269575      16.28054638       0.04100138      -0.10688204       0.08611422
O        0.00000902       1.97050521      12.43408505      -0.68933076      -0.39262108      -0.64035098
O        3.15294791       3.15276354      16.39081294      -0.01008824       0.00241452       0.02715573
O        1.97049401       3.94093312      12.41939373       0.75701427       1.28463035      -1.29034052
O        1.18238144       1.18228938      16.37695527      -0.07230791       0.01648334       0.00463878
O        1.97043419       1.97038596      10.49848267      -0.14088643       0.20382677      -0.48293082
O        1.18235158       3.15271182      14.46717061       0.20413248      -0.92847009       0.58231219
10
Lattice="3.940949890606662 0.0 0.0 0.0 3.940949890606662 0.0 0.0 0.0 26.940967945119528" Properties=species:S:1:pos:R:3:forces:R:3 tau=tau83 tau_p=8 tau_q=3 stage=B constraint=xy_fixed_z_free force_label=raw_dft energy=-15498.85228241655 free_energy=-15498.85228241655 stress="0.005533735946807095 -0.001502105858466303 -0.00545936517997594 -0.001502105858466303 0.008418587173763772 0.009180657994379317 -0.00545936517997594 0.009180657994379317 -0.01832458968415066" pbc="T T T"
Sr       0.00003612       0.00009431      10.77410671       0.00561375       0.00309921       0.24596330
Sr       3.15266193       1.18227095      14.79269718       0.70495663      -0.59983348       1.38795348
Ti       1.97047269       1.97057450      12.29256612      -0.74353835       0.58764311      -0.41303718
Ti       1.18201077       3.15269575      16.28224684       0.03603761      -0.09221596       0.23721281
O        0.00000902       1.97050521      12.41391962      -0.69068727      -0.41337580      -0.41837376
O        3.15294791       3.15276354      16.39126131      -0.00958713       0.00198746       0.20190770
O        1.97049401       3.94093312      12.37916124       0.66914940       1.11573125      -0.98189376
O        1.18238144       1.18228938      16.37664703      -0.06410660       0.01676514       0.19930857
O        1.97043419       1.97038596      10.48640838      -0.12793938       0.18212306      -0.80257268
O        1.18235158       3.15271182      14.48630554       0.22010160      -0.80192399       0.34353101
10
Lattice="3.940949890606662 0.0 0.0 0.0 3.940949890606662 0.0 0.0 0.0 26.940967945119528" Properties=species:S:1:pos:R:3:forces:R:3 tau=tau83 tau_p=8 tau_q=3 stage=B constraint=xy_fixed_z_free force_label=raw_dft energy=-15499.048639218296 free_energy=-15499.048639218296 stress="0.001447016401554336 -0.0012404309381344593 -0.004787273805649941 -0.0012404309381344593 0.003191515870433294 0.007136839142945339 -0.004787273805649941 0.007136839142945339 -0.01781868483817576" pbc="T T T"
Sr       0.00003612       0.00009431      10.79300825       0.00980439      -0.00292772      -0.24150038
Sr       3.15266193       1.18227095      14.90856998       0.54540091      -0.39586787       0.03584941
Ti       1.97047269       1.97057450      12.24232491      -0.54360937       0.46777648      -0.15496939
Ti       1.18201077       3.15269575      16.29265104       0.03100699      -0.07342119       0.34686804
O        0.00000902       1.97050521      12.38187015      -0.65704438      -0.40976314      -0.09694576
O        3.15294791       3.15276354      16.40034793      -0.00932153       0.00148327       0.50166722
O        1.97049401       3.94093312      12.30898709       0.53401093       0.88186499      -0.41424483
O        1.18238144       1.18228938      16.38506404      -0.05205224       0.01616890       0.52679847
O        1.97043419       1.97038596      10.44684260      -0.10454414       0.14962329      -0.63809793
O        1.18235158       3.15271182      14.51565397       0.24634871      -0.63493701       0.13457514
10
Lattice="3.940949890606662 0.0 0.0 0.0 3.940949890606662 0.0 0.0 0.0 26.940967945119528" Properties=species:S:1:pos:R:3:forces:R:3 tau=tau83 tau_p=8 tau_q=3 stage=B constraint=xy_fixed_z_free force_label=raw_dft energy=-15499.095203882594 free_energy=-15499.095203882594 stress="0.0003865443559989692 -0.001140351758077719 -0.004573343081308469 -0.001140351758077719 0.0017031823761949829 0.006433530409702558 -0.004573343081308469 0.006433530409702558 -0.01655989074773731" pbc="T T T"
Sr       0.00003612       0.00009431      10.79255890       0.01116039      -0.00523399      -0.45351792
Sr       3.15266193       1.18227095      14.94977624       0.49301160      -0.33613677      -0.34564188
Ti       1.97047269       1.97057450      12.21791914      -0.48358465       0.43296375      -0.19361230
Ti       1.18201077       3.15269575      16.30434722       0.03045523      -0.06782107       0.36454669
O        0.00000902       1.97050521      12.36854292      -0.63551165      -0.39923524      -0.02504846
O        3.15294791       3.15276354      16.41618599      -0.00950640       0.00108089       0.55664023
O        1.97049401       3.94093312      12.27507139       0.47755027       0.79114644      -0.18913009
O        1.18238144       1.18228938      16.40129464      -0.04704862       0.01549527       0.58781563
O        1.97043419       1.97038596      10.41991854      -0.09384269       0.13632863      -0.42235743
O        1.18235158       3.15271182      14.52970498       0.25731678      -0.56858815       0.12030577
10
Lattice="3.940949890606662 0.0 0.0 0.0 3.940949890606662 0.0 0.0 0.0 26.940967945119528" Properties=species:S:1:pos:R:3:forces:R:3 tau=tau83 tau_p=8 tau_q=3 stage=B constraint=xy_fixed_z_free force_label=raw_dft energy=-15499.157147876824 free_energy=-15499.157147876824 stress="0.0003158462196286114 -0.0010127278495649951 -0.004349312623199803 -0.0010127278495649951 0.0010843441435505524 0.005665032485780617 -0.004349312623199803 0.005665032485780617 -0.014167172002527541" pbc="T T T"
Sr       0.00003612       0.00009431      10.77851423       0.01225928      -0.00755750      -0.64066774
Sr       3.15266193       1.18227095      14.99049227       0.43809232      -0.27794576      -0.58745851
Ti       1.97047269       1.97057450      12.18055062      -0.42201599       0.39698964      -0.18044285
Ti       1.18201077       3.15269575      16.32807331       0.03041949      -0.06192888       0.37381912
O        0.00000902       1.97050521      12.35155870      -0.60480111      -0.38109328      -0.02466202
O        3.15294791       3.15276354      16.45028887      -0.00982856       0.00049185       0.51463304
O        1.97049401       3.94093312      12.22974451       0.40980942       0.68543965       0.02634147
O        1.18238144       1.18228938      16.43670067      -0.04097721       0.01426911       0.54599972
O        1.97043419       1.97038596      10.37868052      -0.08033952       0.12000470      -0.18174820
O        1.18235158       3.15271182      14.55071626       0.26738187      -0.48866901       0.15418649
10
Lattice="3.940949890606662 0.0 0.0 0.0 3.940949890606662 0.0 0.0 0.0 26.940967945119528" Properties=species:S:1:pos:R:3:forces:R:3 tau=tau83 tau_p=8 tau_q=3 stage=B constraint=xy_fixed_z_free force_label=raw_dft energy=-15499.245925833027 free_energy=-15499.245925833027 stress="0.0018803867959284772 -0.0008300144841403044 -0.004075701653870366 -0.0008300144841403044 0.001860187328394089 0.00475513828911796 -0.004075701653870366 0.00475513828911796 -0.009987718538139635" pbc="T T T"
Sr       0.00003612       0.00009431      10.73837608       0.01222971      -0.00941461      -0.76956177
Sr       3.15266193       1.18227095      15.03433650       0.37683631      -0.21707233      -0.62956418
Ti       1.97047269       1.97057450      12.12039345      -0.35388818       0.35437129      -0.10347225
Ti       1.18201077       3.15269575      16.37458492       0.03129213      -0.05652827       0.37480873
O        0.00000902       1.97050521      12.32482720      -0.55585348      -0.34952348      -0.12074877
O        3.15294791       3.15276354      16.51545431      -0.00990852       0.00018152       0.33086935
O        1.97049401       3.94093312      12.16332071       0.32527952       0.55509912       0.22381890
O        1.18238144       1.18228938      16.50469099      -0.03325182       0.01254750       0.35375808
O        1.97043419       1.97038596      10.31224657      -0.06302725       0.09889594       0.09403141
O        1.18235158       3.15271182      14.58708922       0.27029185      -0.38855719       0.24606049
10
Lattice="3.940949890606662 0.0 0.0 0.0 3.940949890606662 0.0 0.0 0.0 26.940967945119528" Properties=species:S:1:pos:R:3:forces:R:3 tau=tau83 tau_p=8 tau_q=3 stage=B constraint=xy_fixed_z_free force_label=raw_dft energy=-15499.3346176652 free_energy=-15499.3346176652 stress="0.005612697501714249 -0.0006142474445684332 -0.003779136744160943 -0.0006142474445684332 0.004606396755455649 0.003911351440749664 -0.003779136744160943 0.003911351440749664 -0.004606396755455649" pbc="T T T"
Sr       0.00003612       0.00009431      10.66284706       0.01033738      -0.00930894      -0.71608385
Sr       3.15266193       1.18227095      15.07054741       0.32309022      -0.16896544      -0.38184044
Ti       1.97047269       1.97057450      12.04346797      -0.29241645       0.31207844       0.04781198
Ti       1.18201077       3.15269575      16.44705626       0.03189248      -0.05156682       0.35552289
O        0.00000902       1.97050521      12.28586425      -0.49167489      -0.30669147      -0.30834623
O        3.15294791       3.15276354      16.60884772      -0.00943878      -0.00000540       0.02779902
O        1.97049401       3.94093312      12.08492758       0.24521151       0.43034019       0.30258927
O        1.18238144       1.18228938      16.60241152      -0.02608873       0.01029830       0.03315155
O        1.97043419       1.97038596      10.22773588      -0.04669252       0.07746091       0.28774964
O        1.18235158       3.15271182      14.64161430       0.25577951      -0.29363978       0.35164644
10
Lattice="3.940949890606662 0.0 0.0 0.0 3.940949890606662 0.0 0.0 0.0 26.940967945119528" Properties=species:S:1:pos:R:3:forces:R:3 tau=tau83 tau_p=8 tau_q=3 stage=B constraint=xy_fixed_z_free force_label=raw_dft energy=-15499.381443966955 free_energy=-15499.381443966955 stress="0.008931837280660266 -0.00047376932944291703 -0.0036166228462706403 -0.00047376932944291703 0.007370969334821198 0.003551433655591479 -0.0036166228462706403 0.003551433655591479 -0.001368054846647183" pbc="T T T"
Sr       0.00003612       0.00009431      10.59399836       0.00770842      -0.00753642      -0.50146950
Sr       3.15266193       1.18227095      15.08252286       0.30020278      -0.15302538      -0.08606845
Ti       1.97047269       1.97057450      11.99709690      -0.26571220       0.29046498       0.13784712
Ti       1.18201077       3.15269575      16.50554538       0.03215730      -0.04942020       0.26778579
O        0.00000902       1.97050521      12.25175688      -0.44658288      -0.27617222      -0.40995649
O        3.15294791       3.15276354      16.67183293      -0.00871655       0.00040161      -0.14048071
O        1.97049401       3.94093312      12.04091128       0.20717152       0.37001877       0.24920803
O        1.18238144       1.18228938      16.66844625      -0.02257634       0.00902303      -0.14800735
O        1.97043419       1.97038596      10.17673943      -0.03941475       0.06639565       0.27560503
O        1.18235158       3.15271182      14.68646971       0.23576270      -0.25015008       0.35553677
10
Lattice="3.940949890606662 0.0 0.0 0.0 3.940949890606662 0.0 0.0 0.0 26.940967945119528" Properties=species:S:1:pos:R:3:forces:R:3 tau=tau83 tau_p=8 tau_q=3 stage=B constraint=xy_fixed_z_free force_label=raw_dft energy=-15499.411400435227 free_energy=-15499.411400435227 stress="0.011470543086686751 -0.0003663448884645812 -0.003506443932446706 -0.0003663448884645812 0.009759097291954972 0.003397183176237971 -0.003506443932446706 0.003397183176237971 0.0004774419599037149" pbc="T T T"
Sr       0.00003612       0.00009431      10.52984837       0.00516406      -0.00513166      -0.21407622
Sr       3.15266193       1.18227095      15.08722560       0.28828443      -0.14970660       0.17039292
Ti       1.97047269       1.97057450      11.96913443      -0.25346603       0.27683402       0.13357267
Ti       1.18201077       3.15269575      16.55620115       0.03175595      -0.04822850       0.11733898
O        0.00000902       1.97050521      12.21533569      -0.40795540      -0.25001639      -0.40958830
O        3.15294791       3.15276354      16.71453770      -0.00783852       0.00130972      -0.18655616
O        1.97049401       3.94093312      12.01585338       0.18616741       0.33555673       0.16604827
O        1.18238144       1.18228938      16.71320348      -0.02057988       0.00794445      -0.20229183
O        1.97043419       1.97038596      10.14535773      -0.03605561       0.05944930       0.16177767
O        1.18235158       3.15271182      14.72862243       0.21452385      -0.22801108       0.26338227
10
Lattice="3.940949890606662 0.0 0.0 0.0 3.940949890606662 0.0 0.0 0.0 26.940967945119528" Properties=species:S:1:pos:R:3:forces:R:3 tau=tau83 tau_p=8 tau_q=3 stage=B constraint=xy_fixed_z_free force_label=raw_dft energy=-15499.42695378196 free_energy=-15499.42695378196 stress="0.012362992288660616 -0.00030482832824621796 -0.003422891589463556 -0.00030482832824621796 0.010905876153339086 0.0033577023987843946 -0.003422891589463556 0.0033577023987843946 0.0008006334404539218" pbc="T T T"
Sr       0.00003612       0.00009431      10.49065707       0.00342728      -0.00347896      -0.00548442
Sr       3.15266193       1.18227095      15.09343678       0.28088968      -0.15142641       0.27336354
Ti       1.97047269       1.97057450      11.95928059      -0.24907536       0.26967993       0.06092075
Ti       1.18201077       3.15269575      16.58535663       0.03108027      -0.04805983       0.00264361
O        0.00000902       1.97050521      12.18501643      -0.38030755      -0.23178264      -0.32916343
O        3.15294791       3.15276354      16.73094163      -0.00729602       0.00217438      -0.13370225
O        1.97049401       3.94093312      12.00868102       0.17801650       0.32077752       0.11762900
O        1.18238144       1.18228938      16.73020165      -0.01967845       0.00730502      -0.15184601
O        1.97043419       1.97038596      10.13425263      -0.03545474       0.05581582       0.03600727
O        1.18235158       3.15271182      14.75749553       0.19839815      -0.22100483       0.12963219
10
Lattice="3.940949890606662 0.0 0.0 0.0 3.940949890606662 0.0 0.0 0.0 26.940967945119528" Properties=species:S:1:pos:R:3:forces:R:3 tau=tau83 tau_p=8 tau_q=3 stage=B constraint=xy_fixed_z_free force_label=raw_dft energy=-15499.43704893326 free_energy=-15499.43704893326 stress="0.012148143406703947 -0.00026718386602304044 -0.0033081218875636244 -0.00026718386602304044 0.011137251872369348 0.0033117945180244223 -0.0033081218875636244 0.0033117945180244223 0.00036450857323418233" pbc="T T T"
Sr       0.00003612       0.00009431      10.46696793       0.00231245      -0.00254179       0.11650980
Sr       3.15266193       1.18227095      15.10795274       0.26971412      -0.15146060       0.24975516
Ti       1.97047269       1.97057450      11.95377768      -0.24316542       0.26145368      -0.02378373
Ti       1.18201077       3.15269575      16.60300862       0.02962862      -0.04714246      -0.06878935
O        0.00000902       1.97050521      12.15586344      -0.35454510      -0.21559137      -0.21674143
O        3.15294791       3.15276354      16.73641627      -0.00690958       0.00295831      -0.03925380
O        1.97049401       3.94093312      12.00727113       0.17325199       0.31052756       0.09938625
O        1.18238144       1.18228938      16.73542967      -0.01879913       0.00687410      -0.05616369
O        1.97043419       1.97038596      10.12903753      -0.03543854       0.05267882      -0.06250635
O        1.18235158       3.15271182      14.77959494       0.18395060      -0.21775598       0.00158714
10
Lattice="3.940949890606662 0.0 0.0 0.0 3.940949890606662 0.0 0.0 0.0 26.940967945119528" Properties=species:S:1:pos:R:3:forces:R:3 tau=tau83 tau_p=8 tau_q=3 stage=B constraint=xy_fixed_z_free force_label=raw_dft energy=-15499.44374211735 free_energy=-15499.44374211735 stress="0.011308947346411647 -0.00024422992564305417 -0.0031520350929797173 -0.00024422992564305417 0.010739689624987987 0.003219978756504477 -0.0031520350929797173 0.003219978756504477 -0.00028646517594222896" pbc="T T T"
Sr       0.00003612       0.00009431      10.45488666       0.00179514      -0.00224200       0.14030433
Sr       3.15266193       1.18227095      15.13032250       0.25341487      -0.14742423       0.13715164
Ti       1.97047269       1.97057450      11.94560851      -0.23306047       0.25003541      -0.07924654
Ti       1.18201077       3.15269575      16.61347790       0.02778231      -0.04511720      -0.07885573
O        0.00000902       1.97050521      12.12887745      -0.33029188      -0.20083452      -0.11619509
O        3.15294791       3.15276354      16.74014184      -0.00660414       0.00345299       0.04624335
O        1.97049401       3.94093312      12.00556695       0.16854070       0.29996238       0.09753968
O        1.18238144       1.18228938      16.73850425      -0.01767813       0.00659411       0.03284044
O        1.97043419       1.97038596      10.12200869      -0.03492946       0.04924408      -0.10281096
O        1.18235158       3.15271182      14.79592521       0.17103107      -0.21367101      -0.07697086
10
Lattice="3.940949890606662 0.0 0.0 0.0 3.940949890606662 0.0 0.0 0.0 26.940967945119528" Properties=species:S:1:pos:R:3:forces:R:3 tau=tau83 tau_p=8 tau_q=3 stage=B constraint=xy_fixed_z_free force_label=raw_dft energy=-15499.448162334542 free_energy=-15499.448162334542 stress="0.010478014704656143 -0.00022586677333906514 -0.0029647309394790294 -0.00022586677333906514 0.010240211882319484 0.0030749098533029637 -0.0029647309394790294 0.0030749098533029637 -0.0006069021836468376" pbc="T T T"
Sr       0.00003612       0.00009431      10.44528511       0.00162288      -0.00226411       0.10352161
Sr       3.15266193       1.18227095      15.15707111       0.23345514      -0.13979679       0.00901352
Ti       1.97047269       1.97057450      11.92992721      -0.21863633       0.23519680      -0.08944919
Ti       1.18201077       3.15269575      16.62435721       0.02554880      -0.04248517      -0.05153545
O        0.00000902       1.97050521      12.10227284      -0.30640145      -0.18632733      -0.05169640
O        3.15294791       3.15276354      16.75078905      -0.00627349       0.00367488       0.08766356
O        1.97049401       3.94093312      11.99901769       0.16169951       0.28608588       0.09215477
O        1.18238144       1.18228938      16.74857948      -0.01619564       0.00640770       0.07797693
O        1.97043419       1.97038596      10.10736183      -0.03340429       0.04517377      -0.08688092
O        1.18235158       3.15271182      14.81065843       0.15858487      -0.20566588      -0.09076894
10
Lattice="3.940949890606662 0.0 0.0 0.0 3.940949890606662 0.0 0.0 0.0 26.940967945119528" Properties=species:S:1:pos:R:3:forces:R:3 tau=tau83 tau_p=8 tau_q=3 stage=B constraint=xy_fixed_z_free force_label=raw_dft energy=-15499.450850411096 free_energy=-15499.450850411096 stress="0.010051989571203597 -0.00020842177865027553 -0.0027921173078215324 -0.00020842177865027553 0.010017099581826018 0.0029234138467950544 -0.0027921173078215324 0.0029234138467950544 -0.00043704302483493903" pbc="T T T"
Sr       0.00003612       0.00009431      10.43456864       0.00158457      -0.00237107       0.05239548
Sr       3.15266193       1.18227095      15.18033439       0.21542451      -0.13202923      -0.06544203
Ti       1.97047269       1.97057450      11.90977690      -0.20430808       0.22082768      -0.06373585
Ti       1.18201077       3.15269575      16.63734893       0.02362278      -0.03985673      -0.01458715
O        0.00000902       1.97050521      12.07840691      -0.28610156      -0.17386905      -0.02780468
O        3.15294791       3.15276354      16.76823458      -0.00596599       0.00367745       0.07526570
O        1.97049401       3.94093312      11.98912599       0.15420345       0.27189416       0.07316048
O        1.18238144       1.18228938      16.76573735      -0.01477793       0.00616756       0.06824402
O        1.97043419       1.97038596      10.08765080      -0.03144922       0.04128549      -0.04143693
O        1.18235158       3.15271182      14.82413548       0.14776721      -0.19572651      -0.05605879
10
Lattice="3.940949890606662 0.0 0.0 0.0 3.940949890606662 0.0 0.0 0.0 26.940967945119528" Properties=species:S:1:pos:R:3:forces:R:3 tau=tau83 tau_p=8 tau_q=3 stage=B constraint=xy_fixed_z_free force_label=raw_dft energy=-15499.452113563537 free_energy=-15499.452113563537 stress="0.010062089304970791 -0.0001955675720374832 -0.0026801020787671995 -0.0001955675720374832 0.010150232436029938 0.002823334666738314 -0.0026801020787671995 0.002823334666738314 -1.3772364227991774e-05" pbc="T T T"
Sr       0.00003612       0.00009431      10.42485682       0.00154266      -0.00239730       0.02173174
Sr       3.15266193       1.18227095      15.19330340       0.20424149      -0.12727629      -0.06873382
Ti       1.97047269       1.97057450      11.89325142      -0.19521975       0.21106314      -0.02806899
Ti       1.18201077       3.15269575      16.64890955       0.02248635      -0.03816314       0.01025330
O        0.00000902       1.97050521      12.06150272      -0.27305990      -0.16573640      -0.02784222
O        3.15294791       3.15276354      16.78482106      -0.00570939       0.00366382       0.03578076
O        1.97049401       3.94093312      11.98131393       0.14907770       0.26246052       0.04530284
O        1.18238144       1.18228938      16.78221923      -0.01378960       0.00597910       0.02998318
O        1.97043419       1.97038596      10.07116149      -0.02999140       0.03870102      -0.00405926
O        1.18235158       3.15271182      14.83398034       0.14042183      -0.18829448      -0.01434753
10
Lattice="3.940949890606662 0.0 0.0 0.0 3.940949890606662 0.0 0.0 0.0 26.940967945119528" Properties=species:S:1:pos:R:3:forces:R:3 tau=tau83 tau_p=8 tau_q=3 stage=B constraint=xy_fixed_z_free force_label=raw_dft energy=-15499.452509897343 free_energy=-15499.452509897343 stress="0.010194304001559512 -0.00018914046873108706 -0.0026397031436984236 -0.00018914046873108706 0.010372426578908205 0.0027957899382823307 -0.0026397031436984236 0.0027957899382823307 0.00025616597464064704" pbc="T T T"
Sr       0.00003612       0.00009431      10.42023130       0.00155860      -0.00240604       0.01583517
Sr       3.15266193       1.18227095      15.19576153       0.20062909      -0.12630570      -0.04183468
Ti       1.97047269       1.97057450      11.88635983      -0.19257074       0.20773511      -0.00762641
Ti       1.18201077       3.15269575      16.65462013       0.02213977      -0.03781784       0.01405005
O        0.00000902       1.97050521      12.05378423      -0.26810410      -0.16255208      -0.02772523
O        3.15294791       3.15276354      16.79273357      -0.00558906       0.00368876       0.00911996
O        1.97049401       3.94093312      11.97940280       0.14772865       0.25992593       0.02391974
O        1.18238144       1.18228938      16.78999450      -0.01341782       0.00589503       0.00404923
O        1.97043419       1.97038596      10.06432934      -0.02954532       0.03772451       0.00673500
O        1.18235158       3.15271182      14.83810274       0.13717067      -0.18588767       0.00347716
10
Lattice="3.940949890606662 0.0 0.0 0.0 3.940949890606662 0.0 0.0 0.0 26.940967945119528" Properties=species:S:1:pos:R:3:forces:R:3 tau=tau83 tau_p=8 tau_q=3 stage=B constraint=xy_fixed_z_free force_label=raw_dft energy=-15499.452687043453 free_energy=-15499.452687043453 stress="0.010258575034623475 -0.00018730415350068813 -0.0026341941980072272 -0.00018730415350068813 0.010524840743031316 0.0028058896720495243 -0.0026341941980072272 0.0028058896720495243 0.00034339094808459494" pbc="T T T"
Sr       0.00003612       0.00009431      10.42003634       0.00160565      -0.00245129       0.01465657
Sr       3.15266193       1.18227095      15.19363595       0.20054579      -0.12715082      -0.01657385
Ti       1.97047269       1.97057450      11.88540240      -0.19301580       0.20755462       0.00102536
Ti       1.18201077       3.15269575      16.65586997       0.02210429      -0.03806287       0.00894461
O        0.00000902       1.97050521      12.05109899      -0.26723841      -0.16190545      -0.02127459
O        3.15294791       3.15276354      16.79441839      -0.00555024       0.00375073      -0.00236284
O        1.97049401       3.94093312      11.98138407       0.14859794       0.26130481       0.00993629
O        1.18238144       1.18228938      16.79142068      -0.01337205       0.00588474      -0.00647301
O        1.97043419       1.97038596      10.06358506      -0.02968879       0.03759981       0.00548751
O        1.18235158       3.15271182      14.83846811       0.13601161      -0.18652428       0.00663396
