10
Lattice="3.940949890606662 0.0 0.0 0.0 3.940949890606662 0.0 0.0 0.0 26.940967945119528" Properties=species:S:1:pos:R:3:forces:R:3 tau=tau11 tau_p=1 tau_q=1 stage=A constraint=rigid_scf force_label=raw_dft energy=-15500.272137323967 free_energy=-15500.272137323967 stress="0.009451514490863155 0.0003654267308493818 0.006754885575022366 0.0003654267308493818 0.009159540369229729 0.006750294786946369 0.006754885575022366 0.006750294786946369 -0.001894159160156469" pbc="T T T"
Sr       0.00003626       0.00009419      10.75260867      -0.00225589      -0.00215716       0.09829070
Sr       0.39399686       0.39408080      14.64522241      -0.35266896      -0.35294407       0.67475440
Ti       1.97047258       1.97057465      12.38212169       0.33986230       0.34019140      -0.15278652
Ti       2.36429564       2.36450570      16.28444791      -0.04980047      -0.04784874      -0.01443700
O        0.00000906       1.97050529      12.45001441       0.90673141      -0.27279379      -0.29844260
O        0.39428297       2.36457348      16.39256827      -0.00895464      -0.02019679      -0.03404243
O        1.97049386       3.94093294      12.44909065      -0.27292903       0.90483677      -0.29581339
O        2.36466649       0.39409932      16.37955485      -0.02009600      -0.01080789       0.00381835
O        1.97043435       1.97038588      10.49176941       0.16409680       0.16381630       0.08196034
O        2.36463654       2.36452185      14.44792112      -0.70398553      -0.70209603      -0.06330159
