10
Lattice="3.940949890606662 0.0 0.0 0.0 3.940949890606662 0.0 0.0 0.0 26.940967945119528" Properties=species:S:1:pos:R:3:forces:R:3 tau=tau03 tau_p=0 tau_q=3 stage=A constraint=rigid_scf force_label=raw_dft energy=-15498.682993866789 free_energy=-15498.682993866789 stress="0.006934844467601459 0.0 -9.181576151994517e-07 0.0 0.01471806657164721 0.01763505331513587 -9.181576151994517e-07 0.01763505331513587 -0.017940799800997286" pbc="T T T"
Sr       0.00003626       0.00009419      10.75260867      -0.00007199       0.00411839       0.24024105
Sr       3.94085176       1.18227078      14.64522241       0.00003317      -0.85722251       2.98994615
Ti       1.97047258       1.97057465      12.38212169      -0.00007456       0.51563243      -1.25995908
Ti       1.97020066       3.15269568      16.28444791      -0.00050111      -0.18717065       0.13908820
O        0.00000906       1.97050529      12.45001441      -0.00005939       0.09253452      -0.80953240
O        0.00018798       3.15276346      16.39256827       0.00028462      -0.06509879      -0.07132214
O        1.97049386       3.94093294      12.44909065      -0.00001723       2.13310365      -2.35324356
O        1.97057150       1.18228930      16.37955485       0.00041472       0.01018183      -0.15366687
O        1.97043435       1.97038588      10.49176941       0.00009642       0.30933174       0.22145271
O        1.97054155       3.15271183      14.44792112      -0.00010490      -1.95541034       1.05699594
