10
Lattice="3.940949890606662 0.0 0.0 0.0 3.940949890606662 0.0 0.0 0.0 26.940967945119528" Properties=species:S:1:pos:R:3:forces:R:3 tau=tau51 tau_p=5 tau_q=1 stage=B constraint=xy_fixed_z_free force_label=raw_dft energy=-15497.108179108012 free_energy=-15497.108179108012 stress="0.022381928185717034 -0.0 -9.181576151994517e-07 -0.0 0.004289632378211838 -0.0007023905756275805 -9.181576151994517e-07 -0.0007023905756275805 -0.035076375373464655" pbc="T T T"
Sr       0.00003626       0.00009419      10.75260867      -0.00010027      -0.00928220       0.35787828
Sr       1.97037682       0.39408080      14.64522241      -0.00026431      -0.60579587       5.12180745
Ti       1.97047258       1.97057465      12.38212169       0.00007302       0.94977528      -3.07450382
Ti       3.94067560       2.36450570      16.28444791       0.00038258       0.05780251       0.20546277
O        0.00000906       1.97050529      12.45001441      -0.00008022      -0.92559791      -3.66450849
O        1.97066293       2.36457348      16.39256827      -0.00048285       0.09908080      -0.31818584
O        1.97049386       3.94093294      12.44909065       0.00007302      -0.20319325      -1.54605447
O        0.00009655       0.39409932      16.37955485       0.00036535       0.00309792      -0.05458401
O        1.97043435       1.97038588      10.49176941       0.00013215       0.05639406       0.34361431
O        0.00006660       2.36452185      14.44792112      -0.00009873       0.57771865       2.62907357
10
Lattice="3.940949890606662 0.0 0.0 0.0 3.940949890606662 0.0 0.0 0.0 26.940967945119528" Properties=species:S:1:pos:R:3:forces:R:3 tau=tau51 tau_p=5 tau_q=1 stage=B constraint=xy_fixed_z_free force_label=raw_dft energy=-15498.043494780743 free_energy=-15498.043494780743 stress="0.01599155118392885 -0.0 0.0 -0.0 0.0026874473396887952 0.000579357455190854 0.0 0.000579357455190854 -0.03221631440211836" pbc="T T T"
Sr       0.00003612       0.00009431      10.75997447      -0.00010567      -0.01020651       0.33610335
Sr       1.97037695       0.39408097      14.75063830      -0.00015967      -0.55377808       3.05706763
Ti       1.97047269       1.97057450      12.31884339       0.00006402       0.65609745      -1.51734219
Ti       3.94067571       2.36450576      16.28867669       0.00070063       0.03797982       0.74234382
O        0.00000902       1.97050521      12.37459258      -0.00006865      -0.63995272      -2.48258676
O        1.97066294       2.36457356      16.38601952      -0.00085335       0.08401105      -0.01735418
O        1.97049401       3.94093312      12.41727018       0.00001003       0.03913296      -0.57874838
O        0.00009646       0.39409940      16.37843138       0.00024271       0.00181623       0.19973358
O        1.97043419       1.97038596      10.49884156       0.00015092       0.05534351      -0.64499054
O        0.00006661       2.36452183      14.50203190       0.00001877       0.32955578       0.90577316
10
Lattice="3.940949890606662 0.0 0.0 0.0 3.940949890606662 0.0 0.0 0.0 26.940967945119528" Properties=species:S:1:pos:R:3:forces:R:3 tau=tau51 tau_p=5 tau_q=1 stage=B constraint=xy_fixed_z_free force_label=raw_dft energy=-15498.590449582945 free_energy=-15498.590449582945 stress="0.009154949581153734 -0.0 0.0 -0.0 2.570841322558465e-05 0.0013570369552647896 0.0 0.0013570369552647896 -0.028528075261862164" pbc="T T T"
Sr       0.00003612       0.00009431      10.77222760      -0.00014295      -0.01170855       0.01284240
Sr       1.97037695       0.39408097      14.86659546      -0.00001054      -0.47291792       1.19870691
Ti       1.97047269       1.97057450      12.26000388       0.00009744       0.45305152      -0.49065107
Ti       3.94067571       2.36450576      16.31432739       0.00100684       0.02394288       0.42201187
O        0.00000902       1.97050521      12.28162077      -0.00010002      -0.43483474      -1.38025559
O        1.97066294       2.36457356      16.38466316      -0.00104901       0.06574902       0.46625799
O        1.97049401       3.94093312      12.39392592      -0.00002237       0.17212610       0.00417444
O        0.00009646       0.39409940      16.38506762       0.00003137       0.00053633       0.61554498
O        1.97043419       1.97038596      10.47781554       0.00017406       0.04975059      -1.15624283
O        0.00006661       2.36452183      14.53907263       0.00001543       0.15430476       0.30761064
10
Lattice="3.940949890606662 0.0 0.0 0.0 3.940949890606662 0.0 0.0 0.0 26.940967945119528" Properties=species:S:1:pos:R:3:forces:R:3 tau=tau51 tau_p=5 tau_q=1 stage=B constraint=xy_fixed_z_free force_label=raw_dft energy=-15498.840255120936 free_energy=-15498.840255120936 stress="0.003445845529843542 -0.0 9.181576151994517e-07 -0.0 -0.0027085649648383825 0.0017187910556533735 9.181576151994517e-07 0.0017187910556533735 -0.02393269639778891" pbc="T T T"
Sr       0.00003612       0.00009431      10.77837924      -0.00015761      -0.01243463      -0.52738725
Sr       1.97037695       0.39408097      14.97068341       0.00009025      -0.39373462      -0.13712233
Ti       1.97047269       1.97057450      12.21022630       0.00011133       0.33103699      -0.45549818
Ti       3.94067571       2.36450576      16.34053769       0.00127064       0.01280075       0.24405503
O        0.00000902       1.97050521      12.18362310      -0.00012521      -0.29863029      -0.36008043
O        1.97066294       2.36457356      16.40084338      -0.00117988       0.05128579       0.82604145
O        1.97049401       3.94093312      12.38073025      -0.00003574       0.22567858       0.27986329
O        0.00009646       0.39409940      16.41067852      -0.00019052       0.00110043       0.89659124
O        1.97043419       1.97038596      10.42720355       0.00020440       0.04014469      -0.77848144
O        0.00006661       2.36452183      14.57241453       0.00001234       0.04275205       0.01201888
10
Lattice="3.940949890606662 0.0 0.0 0.0 3.940949890606662 0.0 0.0 0.0 26.940967945119528" Properties=species:S:1:pos:R:3:forces:R:3 tau=tau51 tau_p=5 tau_q=1 stage=B constraint=xy_fixed_z_free force_label=raw_dft energy=-15498.941930728866 free_energy=-15498.941930728866 stress="0.0016701287020478026 -0.0 9.181576151994517e-07 -0.0 -0.0028674062322678875 0.0017885710344085319 9.181576151994517e-07 0.0017885710344085319 -0.021101098312513798" pbc="T T T"
Sr       0.00003612       0.00009431      10.76639850      -0.00016609      -0.01231841      -0.74436830
Sr       1.97037695       0.39408097      15.01820176       0.00009873      -0.34913473      -0.54848187
Ti       1.97047269       1.97057450      12.17080502       0.00013473       0.27828618      -0.27792134
Ti       3.94067571       2.36450576      16.35894229       0.00130792       0.00774391       0.28867112
O        0.00000902       1.97050521      12.12763043      -0.00013498      -0.24162430       0.03827678
O        1.97066294       2.36457356      16.42985323      -0.00116265       0.04396149       0.83600473
O        1.97049401       3.94093312      12.38037772      -0.00004371       0.23850864       0.18879533
O        0.00009646       0.39409940      16.44592208      -0.00023988       0.00183397       0.85578475
O        1.97043419       1.97038596      10.38656478       0.00021417       0.03388971      -0.59111204
O        0.00006661       2.36452183      14.59062415      -0.00000823      -0.00114620      -0.04564917
10
Lattice="3.940949890606662 0.0 0.0 0.0 3.940949890606662 0.0 0.0 0.0 26.940967945119528" Properties=species:S:1:pos:R:3:forces:R:3 tau=tau51 tau_p=5 tau_q=1 stage=B constraint=xy_fixed_z_free force_label=raw_dft energy=-15499.059708673194 free_energy=-15499.059708673194 stress="0.0016453384464374175 -0.0 0.0 -0.0 -0.001056799415094569 0.0018280518118621084 0.0 0.0018280518118621084 -0.01652867338882053" pbc="T T T"
Sr       0.00003612       0.00009431      10.73344374      -0.00016584      -0.01166844      -0.86172399
Sr       1.97037695       0.39408097      15.05929040       0.00004242      -0.30737590      -0.69887906
Ti       1.97047269       1.97057450      12.11970916       0.00013190       0.23271697      -0.08587999
Ti       3.94067571       2.36450576      16.38772686       0.00125624       0.00434671       0.36884635
O        0.00000902       1.97050521      12.06603850      -0.00013704      -0.19124380       0.31446494
O        1.97066294       2.36457356      16.48202496      -0.00103898       0.03656931       0.66295895
O        1.97049401       3.94093312      12.38190293      -0.00005605       0.24603837      -0.05742328
O        0.00009646       0.39409940      16.50529458      -0.00020003       0.00263281       0.62947367
O        1.97043419       1.97038596      10.32830242       0.00022626       0.02676673      -0.31174600
O        0.00006661       2.36452183      14.61158642      -0.00005939      -0.03878226       0.03990841
10
Lattice="3.940949890606662 0.0 0.0 0.0 3.940949890606662 0.0 0.0 0.0 26.940967945119528" Properties=species:S:1:pos:R:3:forces:R:3 tau=tau51 tau_p=5 tau_q=1 stage=B constraint=xy_fixed_z_free force_label=raw_dft energy=-15499.181345463872 free_energy=-15499.181345463872 stress="0.0038828885546784817 -0.0 -0.0 -0.0 0.0035771420688170638 0.001855596540318092 -0.0 0.001855596540318092 -0.009550675513304695" pbc="T T T"
Sr       0.00003612       0.00009431      10.66557467      -0.00015967      -0.00930971      -0.80751923
Sr       1.97037695       0.39408097      15.09326397      -0.00005322      -0.26882735      -0.55498573
Ti       1.97047269       1.97057450      12.05249512       0.00013061       0.19021407       0.13724369
Ti       3.94067571       2.36450576      16.43651047       0.00101276       0.00168510       0.45499270
O        0.00000902       1.97050521      11.99614078      -0.00013113      -0.14453328       0.42320538
O        1.97066294       2.36457356      16.56642742      -0.00075976       0.02929798       0.28351529
O        1.97049401       3.94093312      12.37925998      -0.00006505       0.24816699      -0.44751825
O        0.00009646       0.39409940      16.59768248      -0.00005322       0.00354015       0.20076793
O        1.97043419       1.97038596      10.24609439       0.00022986       0.01943317       0.04261603
O        0.00006661       2.36452183      14.64187068      -0.00015144      -0.06966713       0.26768218
10
Lattice="3.940949890606662 0.0 0.0 0.0 3.940949890606662 0.0 0.0 0.0 26.940967945119528" Properties=species:S:1:pos:R:3:forces:R:3 tau=tau51 tau_p=5 tau_q=1 stage=B constraint=xy_fixed_z_free force_label=raw_dft energy=-15499.246084883567 free_energy=-15499.246084883567 stress="0.006842110548466314 -0.0 -9.181576151994517e-07 -0.0 0.007901664436406481 0.0018886502144652723 -9.181576151994517e-07 0.0018886502144652723 -0.00475605644673316" pbc="T T T"
Sr       0.00003612       0.00009431      10.60201799      -0.00015041      -0.00718495      -0.58659127
Sr       1.97037695       0.39408097      15.09857348      -0.00012110      -0.25591990      -0.27147713
Ti       1.97047269       1.97057450      12.01528625       0.00012727       0.17586500       0.18219094
Ti       3.94067571       2.36450576      16.47888568       0.00076927       0.00032267       0.43638897
O        0.00000902       1.97050521      11.96419724      -0.00012007      -0.12439486       0.32532503
O        1.97066294       2.36457356      16.62660953      -0.00054045       0.02579485       0.01089942
O        1.97049401       3.94093312      12.36609280      -0.00007276       0.24475025      -0.63774491
O        0.00009646       0.39409940      16.66063550       0.00007739       0.00378235      -0.07996619
O        1.97043419       1.97038596      10.19530331       0.00023191       0.01649928       0.21328869
O        0.00006661       2.36452183      14.66771817      -0.00020106      -0.07951496       0.40768646
10
Lattice="3.940949890606662 0.0 0.0 0.0 3.940949890606662 0.0 0.0 0.0 26.940967945119528" Properties=species:S:1:pos:R:3:forces:R:3 tau=tau51 tau_p=5 tau_q=1 stage=B constraint=xy_fixed_z_free force_label=raw_dft energy=-15499.29731983768 free_energy=-15499.29731983768 stress="0.01006484377781639 -0.0 -9.181576151994517e-07 -0.0 0.011795570882467356 0.0019363944104556436 -9.181576151994517e-07 0.0019363944104556436 -0.0011798325355312955" pbc="T T T"
Sr       0.00003612       0.00009431      10.53394974      -0.00014013      -0.00474163      -0.24943043
Sr       1.97037695       0.39408097      15.09209475      -0.00016275      -0.25270884       0.05260194
Ti       1.97047269       1.97057450      11.99191840       0.00011261       0.17165687       0.10790457
Ti       3.94067571       2.36450576      16.52536424       0.00053479      -0.00081350       0.29346803
O        0.00000902       1.97050521      11.94949996      -0.00010362      -0.11296065       0.15743379
O        1.97066294       2.36457356      16.67600094      -0.00036175       0.02374979      -0.15405639
O        1.97049401       3.94093312      12.33805504      -0.00007456       0.23736733      -0.66522641
O        0.00009646       0.39409940      16.70955154       0.00019078       0.00390576      -0.23177055
O        1.97043419       1.97038596      10.15973621       0.00022754       0.01539165       0.24560052
O        0.00006661       2.36452183      14.69914913      -0.00022317      -0.08084654       0.44347493
10
Lattice="3.940949890606662 0.0 0.0 0.0 3.940949890606662 0.0 0.0 0.0 26.940967945119528" Properties=species:S:1:pos:R:3:forces:R:3 tau=tau51 tau_p=5 tau_q=1 stage=B constraint=xy_fixed_z_free force_label=raw_dft energy=-15499.33024153045 free_energy=-15499.33024153045 stress="0.012224350488765499 -0.0 -9.181576151994517e-07 -0.0 0.013795318168371762 0.0019648572965268265 -9.181576151994517e-07 0.0019648572965268265 0.00036267225800378346" pbc="T T T"
Sr       0.00003612       0.00009431      10.48224206      -0.00013035      -0.00301925       0.04620761
Sr       1.97037695       0.39408097      15.08656000      -0.00017818      -0.25244376       0.27210936
Ti       1.97047269       1.97057450      11.98125449       0.00010542       0.17180394      -0.03567483
Ti       3.94067571       2.36450576      16.56402702       0.00040443      -0.00170901       0.10899421
O        0.00000902       1.97050521      11.94667397      -0.00009307      -0.10760864       0.04415278
O        1.97066294       2.36457356      16.70414127      -0.00030365       0.02264139      -0.16759942
O        1.97049401       3.94093312      12.30104805      -0.00007405       0.22740405      -0.54692249
O        0.00009646       0.39409940      16.73493328       0.00025942       0.00397518      -0.22486585
O        1.97043419       1.97038596      10.14330435       0.00022060       0.01558063       0.15299478
O        0.00006661       2.36452183      14.73113547      -0.00021083      -0.07662479       0.35060385
10
Lattice="3.940949890606662 0.0 0.0 0.0 3.940949890606662 0.0 0.0 0.0 26.940967945119528" Properties=species:S:1:pos:R:3:forces:R:3 tau=tau51 tau_p=5 tau_q=1 stage=B constraint=xy_fixed_z_free force_label=raw_dft energy=-15499.351899615094 free_energy=-15499.351899615094 stress="0.013016720510682625 -0.0 -9.181576151994517e-07 -0.0 0.014088210447620386 0.001945575986607638 -9.181576151994517e-07 0.001945575986607638 0.00044806091621733243" pbc="T T T"
Sr       0.00003612       0.00009431      10.44957735      -0.00012444      -0.00188873       0.22513171
Sr       1.97037695       0.39408097      15.09277478      -0.00017021      -0.24642481       0.34583060
Ti       1.97047269       1.97057450      11.97198588       0.00008896       0.16718701      -0.14508889
Ti       3.94067571       2.36450576      16.59354753       0.00038207      -0.00216975      -0.03419516
O        0.00000902       1.97050521      11.94421131      -0.00008716      -0.10330975       0.01685461
O        1.97066294       2.36457356      16.71881838      -0.00033501       0.02163172      -0.09166986
O        1.97049401       3.94093312      12.26099229      -0.00007173       0.21556515      -0.38421871
O        0.00009646       0.39409940      16.74634603       0.00028642       0.00390499      -0.13365957
O        1.97043419       1.97038596      10.13490159       0.00021392       0.01607582       0.01378471
O        0.00006661       2.36452183      14.76216482      -0.00018255      -0.07057190       0.18723056
10
Lattice="3.940949890606662 0.0 0.0 0.0 3.940949890606662 0.0 0.0 0.0 26.940967945119528" Properties=species:S:1:pos:R:3:forces:R:3 tau=tau51 tau_p=5 tau_q=1 stage=B constraint=xy_fixed_z_free force_label=raw_dft energy=-15499.370189610701 free_energy=-15499.370189610701 stress="0.012745864014198789 -0.0 -9.181576151994517e-07 -0.0 0.01327839543101447 0.0018629418012396876 -9.181576151994517e-07 0.0018629418012396876 -0.00024606624087345305" pbc="T T T"
Sr       0.00003612       0.00009431      10.42844432      -0.00012161      -0.00123259       0.28802809
Sr       1.97037695       0.39408097      15.11473743      -0.00015607      -0.23045698       0.29590415
Ti       1.97047269       1.97057450      11.95575977       0.00008947       0.15483543      -0.19307879
Ti       3.94067571       2.36450576      16.61947204       0.00041549      -0.00208568      -0.11397957
O        0.00000902       1.97050521      11.93613601      -0.00008099      -0.09746538       0.05093432
O        1.97066294       2.36457356      16.73086242      -0.00042012       0.02008237       0.02262519
O        1.97049401       3.94093312      12.21599668      -0.00006891       0.20032416      -0.22177642
O        0.00009646       0.39409940      16.75511416       0.00028051       0.00364402      -0.01055926
O        1.97043419       1.97038596      10.12385379       0.00020800       0.01623343      -0.11777041
O        0.00006661       2.36452183      14.79494335      -0.00014578      -0.06387880      -0.00032756
10
Lattice="3.940949890606662 0.0 0.0 0.0 3.940949890606662 0.0 0.0 0.0 26.940967945119528" Properties=species:S:1:pos:R:3:forces:R:3 tau=tau51 tau_p=5 tau_q=1 stage=B constraint=xy_fixed_z_free force_label=raw_dft energy=-15499.385943913505 free_energy=-15499.385943913505 stress="0.011764353523550576 -0.0 -9.181576151994517e-07 -0.0 0.011902995323445693 0.0017206273708837724 -9.181576151994517e-07 0.0017206273708837724 -0.0010953620349329458" pbc="T T T"
Sr       0.00003612       0.00009431      10.41340727      -0.00012573      -0.00086492       0.23580461
Sr       1.97037695       0.39408097      15.15220734      -0.00014527      -0.20484313       0.15257055
Ti       1.97047269       1.97057450      11.92789348       0.00009770       0.13609080      -0.17442981
Ti       3.94067571       2.36450576      16.64489878       0.00049828      -0.00191136      -0.11798972
O        0.00000902       1.97050521      11.91993726      -0.00007893      -0.08945176       0.11204173
O        1.97066294       2.36457356      16.74867932      -0.00051525       0.01772724       0.12478309
O        1.97049401       3.94093312      12.16716883      -0.00006531       0.18173611      -0.09902115
O        0.00009646       0.39409940      16.77000780       0.00025351       0.00318534       0.09435846
O        1.97043419       1.97038596      10.10251818       0.00020235       0.01562768      -0.18435890
O        0.00006661       2.36452183      14.82860171      -0.00012136      -0.05729652      -0.14375886
10
Lattice="3.940949890606662 0.0 0.0 0.0 3.940949890606662 0.0 0.0 0.0 26.940967945119528" Properties=species:S:1:pos:R:3:forces:R:3 tau=tau51 tau_p=5 tau_q=1 stage=B constraint=xy_fixed_z_free force_label=raw_dft energy=-15499.397518683805 free_energy=-15499.397518683805 stress="0.01085262301165752 -0.0 -0.0 -0.0 0.01080028802759115 0.0015581134729934693 -0.0 0.0015581134729934693 -0.001296438552661626" pbc="T T T"
Sr       0.00003612       0.00009431      10.39700061      -0.00012676      -0.00065640       0.12656127
Sr       1.97037695       0.39408097      15.19528991      -0.00013781      -0.17724208       0.01046773
Ti       1.97047269       1.97057450      11.89028409       0.00008819       0.11775061      -0.11283749
Ti       3.94067571       2.36450576      16.67184552       0.00056873      -0.00227748      -0.07907119
O        0.00000902       1.97050521      11.89824683      -0.00007430      -0.08076632       0.14719643
O        1.97066294       2.36457356      16.77761927      -0.00056204       0.01496459       0.15750655
O        1.97049401       3.94093312      12.11966168      -0.00005965       0.16295369      -0.04655008
O        0.00009646       0.39409940      16.79659957       0.00022626       0.00268295       0.12745601
O        1.97043419       1.97038596      10.06903373       0.00019232       0.01437581      -0.15618475
O        0.00006661       2.36452183      14.85973873      -0.00011467      -0.05178562      -0.17454422
10
Lattice="3.940949890606662 0.0 0.0 0.0 3.940949890606662 0.0 0.0 0.0 26.940967945119528" Properties=species:S:1:pos:R:3:forces:R:3 tau=tau51 tau_p=5 tau_q=1 stage=B constraint=xy_fixed_z_free force_label=raw_dft energy=-15499.404875689603 free_energy=-15499.404875689603 stress="0.010538613107259306 -0.0 -9.181576151994517e-07 -0.0 0.01034855448091302 0.0014112082545615573 -9.181576151994517e-07 0.0014112082545615573 -0.000713408467009974" pbc="T T T"
Sr       0.00003612       0.00009431      10.37499719      -0.00013653      -0.00049057       0.03568485
Sr       1.97037695       0.39408097      15.23430385      -0.00014681      -0.15346375      -0.05767730
Ti       1.97047269       1.97057450      11.84925013       0.00009205       0.10290943      -0.04858022
Ti       3.94067571       2.36450576      16.70086772       0.00058081      -0.00262870      -0.03514210
O        0.00000902       1.97050521      11.87693669      -0.00006865      -0.07314814       0.12994587
O        1.97066294       2.36457356      16.81550721      -0.00054687       0.01251304       0.11634422
O        1.97049401       3.94093312      12.07429831      -0.00005734       0.14596307      -0.04131480
O        0.00009646       0.39409940      16.83218274       0.00022317       0.00219289       0.08865832
O        1.97043419       1.97038596      10.02897349       0.00019103       0.01304783      -0.06976226
O        0.00006661       2.36452183      14.88800264      -0.00013087      -0.04689512      -0.11815685
10
Lattice="3.940949890606662 0.0 0.0 0.0 3.940949890606662 0.0 0.0 0.0 26.940967945119528" Properties=species:S:1:pos:R:3:forces:R:3 tau=tau51 tau_p=5 tau_q=1 stage=B constraint=xy_fixed_z_free force_label=raw_dft energy=-15499.407496009811 free_energy=-15499.407496009811 stress="0.010776415929595964 -0.0 -9.181576151994517e-07 -0.0 0.010390789731212196 0.0013294922268088062 -9.181576151994517e-07 0.0013294922268088062 -2.4790255610385195e-05" pbc="T T T"
Sr       0.00003612       0.00009431      10.35825367      -0.00013730      -0.00041240       0.00517949
Sr       1.97037695       0.39408097      15.25419508      -0.00015889      -0.14113377      -0.05022316
Ti       1.97047269       1.97057450      11.82361485       0.00008639       0.09534730      -0.00527205
Ti       3.94067571       2.36450576      16.71987228       0.00055587      -0.00247160      -0.00715255
O        0.00000902       1.97050521      11.86719091      -0.00006145      -0.06956325       0.08093576
O        1.97066294       2.36457356      16.84272653      -0.00050676       0.01131234       0.05465008
O        1.97049401       3.94093312      12.04498180      -0.00005348       0.13622219      -0.04511900
O        0.00009646       0.39409940      16.85730689       0.00023526       0.00201960       0.03257125
O        1.97043419       1.97038596      10.00294684       0.00018640       0.01232767      -0.01090148
O        0.00006661       2.36452183      14.90423110      -0.00014604      -0.04364782      -0.05466782
10
Lattice="3.940949890606662 0.0 0.0 0.0 3.940949890606662 0.0 0.0 0.0 26.940967945119528" Properties=species:S:1:pos:R:3:forces:R:3 tau=tau51 tau_p=5 tau_q=1 stage=B constraint=xy_fixed_z_free force_label=raw_dft energy=-15499.408212485547 free_energy=-15499.408212485547 stress="0.01106839005122939 -0.0 -9.181576151994517e-07 -0.0 0.01046791497088895 0.0013065382864288198 -9.181576151994517e-07 0.0013065382864288198 0.00029748306732462236" pbc="T T T"
Sr       0.00003612       0.00009431      10.35315473      -0.00013755      -0.00037152       0.00629997
Sr       1.97037695       0.39408097      15.25730599      -0.00016378      -0.13820168      -0.02650705
Ti       1.97047269       1.97057450      11.81685539       0.00008125       0.09399182       0.00329178
Ti       3.94067571       2.36450576      16.72529998       0.00054250      -0.00229368      -0.00272923
O        0.00000902       1.97050521      11.86836501      -0.00005785      -0.06946169       0.04463358
O        1.97066294       2.36457356      16.85177364      -0.00048182       0.01098247       0.02136690
O        1.97049401       3.94093312      12.03406871      -0.00005296       0.13334075      -0.03533313
O        0.00009646       0.39409940      16.86484218       0.00024323       0.00195687       0.00529184
O        1.97043419       1.97038596       9.99587035       0.00018255       0.01225722       0.00562532
O        0.00006661       2.36452183      14.90778397      -0.00015581      -0.04220106      -0.02193999
10
Lattice="3.940949890606662 0.0 0.0 0.0 3.940949890606662 0.0 0.0 0.0 26.940967945119528" Properties=species:S:1:pos:R:3:forces:R:3 tau=tau51 tau_p=5 tau_q=1 stage=B constraint=xy_fixed_z_free force_label=raw_dft energy=-15499.408608683298 free_energy=-15499.408608683298 stress="0.01130343840072045 -0.0 -9.181576151994517e-07 -0.0 0.010456897079506556 0.0013037838135832214 -9.181576151994517e-07 0.0013037838135832214 0.00039388961692056473" pbc="T T T"
Sr       0.00003612       0.00009431      10.35458424      -0.00013730      -0.00039029       0.01094930
Sr       1.97037695       0.39408097      15.25386110      -0.00016661      -0.13874727      -0.00516715
Ti       1.97047269       1.97057450      11.81806763       0.00008305       0.09492204       0.00124493
Ti       3.94067571       2.36450576      16.72410230       0.00052399      -0.00218724      -0.00329975
O        0.00000902       1.97050521      11.87472564      -0.00005451      -0.07086269       0.01528958
O        1.97066294       2.36457356      16.85253839      -0.00046563       0.01099764       0.00179720
O        1.97049401       3.94093312      12.03071454      -0.00005142       0.13311424      -0.01646560
O        0.00009646       0.39409940      16.86416513       0.00024888       0.00193887      -0.00778736
O        1.97043419       1.97038596       9.99712163       0.00018101       0.01249530       0.00593179
O        0.00006661       2.36452183      14.90543936      -0.00016172      -0.04128060      -0.00249294
