10
Lattice="3.940949890606662 0.0 0.0 0.0 3.940949890606662 0.0 0.0 0.0 26.940967945119528" Properties=species:S:1:pos:R:3:forces:R:3 tau=tau07 tau_p=0 tau_q=7 stage=A constraint=rigid_scf force_label=raw_dft energy=-15498.68277563149 free_energy=-15498.68277563149 stress="0.006945862358983852 -9.181576151994517e-07 -9.181576151994517e-07 -9.181576151994517e-07 0.014732757093490402 -0.01763321699990547 -9.181576151994517e-07 -0.01763321699990547 -0.01792886375199969" pbc="T T T"
Sr       0.00003626       0.00009419      10.75260867      -0.00007585      -0.00417830       0.24052259
Sr       3.94085176       2.75865074      14.64522241       0.00002725       0.85723562       2.99062338
Ti       1.97047258       1.97057465      12.38212169      -0.00007559      -0.51564579      -1.26008326
Ti       1.97020066       0.78812574      16.28444791      -0.00049005       0.18708375       0.13851150
O        0.00000906       1.97050529      12.45001441      -0.00006582      -0.09296106      -0.80960130
O        0.00018798       0.78819352      16.39256827       0.00028154       0.06511576      -0.07155971
O        1.97049386       3.94093294      12.44909065      -0.00001414      -2.13336436      -2.35315332
O        1.97057150       2.75866926      16.37955485       0.00041446      -0.01019725      -0.15378154
O        1.97043435       1.97038588      10.49176941       0.00010310      -0.30876404       0.22160827
O        1.97054155       0.78814190      14.44792112      -0.00010490       1.95567620       1.05691340
