10
Lattice="3.940949890606662 0.0 0.0 0.0 3.940949890606662 0.0 0.0 0.0 26.940967945119528" Properties=species:S:1:pos:R:3:forces:R:3 tau=tau67 tau_p=6 tau_q=7 stage=B constraint=xy_fixed_z_free force_label=raw_dft energy=-15499.262970771768 free_energy=-15499.262970771768 stress="0.010347636323297821 4.5907880759972583e-05 -0.001229413046752066 4.5907880759972583e-05 0.010085961402965977 -0.0018868138992348734 -0.001229413046752066 -0.0018868138992348734 -0.0016435021312070186" pbc="T T T"
Sr       0.00003626       0.00009419      10.33244784       0.00026148       0.00012778      -0.00085129
Sr       2.36447180       2.75865074      15.30999169       0.08635307       0.17674560      -0.00719472
Ti       1.97047258       1.97057465      11.77283744      -0.09183312      -0.14232239      -0.04023262
Ti       0.39382070       0.78812574      16.74952532       0.01041785       0.00629895       0.05087390
O        0.00000906       1.97050529      11.90146926      -0.10894330       0.10903431      -0.03951991
O        2.36475792       0.78819352      16.88617145      -0.00306116      -0.01331163       0.03734399
O        1.97049386       3.94093294      11.93518605       0.07012195      -0.17636662      -0.03302351
O        0.39419154       2.75866926      16.88886391      -0.00498228      -0.00359055       0.03547480
O        1.97043435       1.97038588       9.95963832      -0.01344507      -0.01903516      -0.03792454
O        0.39416159       0.78814190      14.93918733       0.05511057       0.06241944       0.03505391
10
Lattice="3.940949890606662 0.0 0.0 0.0 3.940949890606662 0.0 0.0 0.0 26.940967945119528" Properties=species:S:1:pos:R:3:forces:R:3 tau=tau67 tau_p=6 tau_q=7 stage=B constraint=xy_fixed_z_free force_label=raw_dft energy=-15499.263215538165 free_energy=-15499.263215538165 stress="0.01036324500275621 4.5907880759972583e-05 -0.001227576731521667 4.5907880759972583e-05 0.010104324555269967 -0.0018858957416196737 -0.001227576731521667 -0.0018858957416196737 -0.0016095302994446389" pbc="T T T"
Sr       0.00003612       0.00009431      10.33243050       0.00027845       0.00014707      -0.00683605
Sr       2.36447194       2.75865092      15.30984386       0.08626154       0.17657797      -0.00096956
Ti       1.97047269       1.97057450      11.77200958      -0.09174725      -0.14211310      -0.03938339
Ti       0.39382079       0.78812580      16.75057250       0.01041091       0.00629252       0.04365836
O        0.00000902       1.97050521      11.90065595      -0.10877103       0.10883223      -0.03734836
O        2.36475793       0.78819359      16.88694010      -0.00304701      -0.01328926       0.03667653
O        1.97049401       3.94093312      11.93450634       0.07002142      -0.17618973      -0.03200715
O        0.39419145       2.75866935      16.88959434      -0.00497046      -0.00358849       0.03498963
O        1.97043419       1.97038596       9.95885780      -0.01342861      -0.01900945      -0.03501971
O        0.39416160       0.78814187      14.93990899       0.05499230       0.06234025       0.03623996
10
Lattice="3.940949890606662 0.0 0.0 0.0 3.940949890606662 0.0 0.0 0.0 26.940967945119528" Properties=species:S:1:pos:R:3:forces:R:3 tau=tau67 tau_p=6 tau_q=7 stage=B constraint=xy_fixed_z_free force_label=raw_dft energy=-15499.263486019323 free_energy=-15499.263486019323 stress="0.01034671816568262 4.498972314477313e-05 -0.0012257404162912679 4.498972314477313e-05 0.010090552191041975 -0.0018831412687740753 -0.0012257404162912679 -0.0018831412687740753 -0.0016122847722902373" pbc="T T T"
Sr       0.00003612       0.00009431      10.33232363       0.00028642       0.00017998      -0.01328052
Sr       2.36447194       2.75865092      15.30975565       0.08614378       0.17635197       0.00626655
Ti       1.97047269       1.97057450      11.77102902      -0.09162075      -0.14189841      -0.03817985
Ti       0.39382079       0.78812580      16.75172428       0.01042120       0.00627838       0.03815466
O        0.00000902       1.97050521      11.89971195      -0.10854118       0.10856972      -0.03527014
O        2.36475793       0.78819359      16.88785199      -0.00303442      -0.01325249       0.03592500
O        1.97049401       3.94093312      11.93370607       0.06989287      -0.17592053      -0.03108309
O        0.39419145       2.75866935      16.89046272      -0.00495220      -0.00357718       0.03441190
O        1.97043419       1.97038596       9.95796369      -0.01340059      -0.01896703      -0.03220050
O        0.39416160       0.78814187      14.94079096       0.05480512       0.06223587       0.03525599
10
Lattice="3.940949890606662 0.0 0.0 0.0 3.940949890606662 0.0 0.0 0.0 26.940967945119528" Properties=species:S:1:pos:R:3:forces:R:3 tau=tau67 tau_p=6 tau_q=7 stage=B constraint=xy_fixed_z_free force_label=raw_dft energy=-15499.263889700202 free_energy=-15499.263889700202 stress="0.010359572372295414 4.4071565529573677e-05 -0.0012229859434456697 4.4071565529573677e-05 0.010107079028115565 -0.0018803867959284772 -0.0012229859434456697 -0.0018803867959284772 -0.001587494516679852" pbc="T T T"
Sr       0.00003612       0.00009431      10.33196773       0.00030442       0.00021880      -0.02166823
Sr       2.36447194       2.75865092      15.30981632       0.08592601       0.17592799       0.01623086
Ti       1.97047269       1.97057450      11.76946340      -0.09141583      -0.14150426      -0.03429672
Ti       0.39382079       0.78812580      16.75345195       0.01040705       0.00625087       0.03239744
O        0.00000902       1.97050521      11.89822981      -0.10815963       0.10814600      -0.03263810
O        2.36475793       0.78819359      16.88931867      -0.00301128      -0.01319927       0.03409694
O        1.97049401       3.94093312      11.93242606       0.06967587      -0.17546031      -0.03012922
O        0.39419145       2.75866935      16.89186328      -0.00492598      -0.00356175       0.03286873
O        1.97043419       1.97038596       9.95658374      -0.01335637      -0.01890146      -0.03018938
O        0.39416160       0.78814187      14.94219899       0.05455547       0.06208314       0.03332792
10
Lattice="3.940949890606662 0.0 0.0 0.0 3.940949890606662 0.0 0.0 0.0 26.940967945119528" Properties=species:S:1:pos:R:3:forces:R:3 tau=tau67 tau_p=6 tau_q=7 stage=B constraint=xy_fixed_z_free force_label=raw_dft energy=-15499.264469846905 free_energy=-15499.264469846905 stress="0.010372426578908205 4.3153407914374227e-05 -0.001217476997754473 4.3153407914374227e-05 0.010127278495649952 -0.0018748778502372804 -0.001217476997754473 -0.0018748778502372804 -0.0015535226849174722" pbc="T T T"
Sr       0.00003612       0.00009431      10.33119168       0.00032319       0.00026482      -0.03259542
Sr       2.36447194       2.75865092      15.31016953       0.08556091       0.17521374       0.02925298
Ti       1.97047269       1.97057450      11.76710046      -0.09107644      -0.14086354      -0.02940211
Ti       0.39382079       0.78812580      16.75604346       0.01042788       0.00624058       0.02500218
O        0.00000902       1.97050521      11.89595529      -0.10755747       0.10746954      -0.02887477
O        2.36475793       0.78819359      16.89158471      -0.00298711      -0.01312111       0.03146182
O        1.97049401       3.94093312      11.93042734       0.06931617      -0.17470697      -0.02876319
O        0.39419145       2.75866935      16.89403238      -0.00489178      -0.00354169       0.03063855
O        1.97043419       1.97038596       9.95444761      -0.01329286      -0.01880145      -0.02694079
O        0.39416160       0.78814187      14.94436750       0.05417726       0.06184609       0.03022049
10
Lattice="3.940949890606662 0.0 0.0 0.0 3.940949890606662 0.0 0.0 0.0 26.940967945119528" Properties=species:S:1:pos:R:3:forces:R:3 tau=tau67 tau_p=6 tau_q=7 stage=B constraint=xy_fixed_z_free force_label=raw_dft energy=-15499.265283875455 free_energy=-15499.265283875455 stress="0.010391707888827394 4.1317092683975326e-05 -0.0012101317368328772 4.1317092683975326e-05 0.010157577696951534 -0.0018656962740852857 -0.0012101317368328772 -0.0018656962740852857 -0.0015030240160815026" pbc="T T T"
Sr       0.00003612       0.00009431      10.32970993       0.00034376       0.00031265      -0.04729956
Sr       2.36447194       2.75865092      15.31104490       0.08497393       0.17404620       0.04656191
Ti       1.97047269       1.97057450      11.76353420      -0.09057354      -0.13985053      -0.02247633
Ti       0.39382079       0.78812580      16.75993073       0.01047776       0.00619430       0.01497179
O        0.00000902       1.97050521      11.89248897      -0.10661259       0.10642439      -0.02356339
O        2.36475793       0.78819359      16.89506033      -0.00295034      -0.01299024       0.02774812
O        1.97049401       3.94093312      11.92733183       0.06874744      -0.17348621      -0.02684129
O        0.39419145       2.75866935      16.89736669      -0.00483882      -0.00350904       0.02750052
O        1.97043419       1.97038596       9.95117844      -0.01318487      -0.01864050      -0.02276275
O        0.39416160       0.78814187      14.94767396       0.05361701       0.06149899       0.02616072
10
Lattice="3.940949890606662 0.0 0.0 0.0 3.940949890606662 0.0 0.0 0.0 26.940967945119528" Properties=species:S:1:pos:R:3:forces:R:3 tau=tau67 tau_p=6 tau_q=7 stage=B constraint=xy_fixed_z_free force_label=raw_dft energy=-15499.266392739346 free_energy=-15499.266392739346 stress="0.010421088932513776 3.9480777453576426e-05 -0.0011981956878352846 3.9480777453576426e-05 0.010201649262481108 -0.0018510057522420945 -0.0011981956878352846 -0.0018510057522420945 -0.0014240624611743494" pbc="T T T"
Sr       0.00003612       0.00009431      10.32703950       0.00036870       0.00038772      -0.06664505
Sr       2.36447194       2.75865092      15.31283759       0.08404808       0.17215927       0.06947018
Ti       1.97047269       1.97057450      11.75816204      -0.08975824      -0.13834232      -0.01367801
Ti       0.39382079       0.78812580      16.76576163       0.01048933       0.00613594       0.00163445
O        0.00000902       1.97050521      11.88721810      -0.10515606       0.10483107      -0.01605011
O        2.36475793       0.78819359      16.90037874      -0.00289609      -0.01277710       0.02261722
O        1.97049401       3.94093312      11.92255198       0.06786118      -0.17153320      -0.02412183
O        0.39419145       2.75866935      16.90247978      -0.00474240      -0.00345659       0.02317207
O        1.97043419       1.97038596       9.94617479      -0.01301184      -0.01838082      -0.01693071
O        0.39416160       0.78814187      14.95271583       0.05279735       0.06097654       0.02053154
10
Lattice="3.940949890606662 0.0 0.0 0.0 3.940949890606662 0.0 0.0 0.0 26.940967945119528" Properties=species:S:1:pos:R:3:forces:R:3 tau=tau67 tau_p=6 tau_q=7 stage=B constraint=xy_fixed_z_free force_label=raw_dft energy=-15499.267837119602 free_energy=-15499.267837119602 stress="0.010456897079506556 3.580814699277862e-05 -0.0011798325355312955 3.580814699277862e-05 0.010258575034623475 -0.0018289699694773076 -0.0011798325355312955 -0.0018289699694773076 -0.001312965389735216" pbc="T T T"
Sr       0.00003612       0.00009431      10.32238556       0.00037410       0.00045329      -0.09151585
Sr       2.36447194       2.75865092      15.31622463       0.08256275       0.16914748       0.09906255
Ti       1.97047269       1.97057450      11.75005581      -0.08844826      -0.13600596      -0.00142311
Ti       0.39382079       0.78812580      16.77450797       0.01064000       0.00623493      -0.01619358
O        0.00000902       1.97050521      11.87922206      -0.10294800       0.10238081      -0.00575747
O        2.36475793       0.78819359      16.90850409      -0.00284544      -0.01245211       0.01545439
O        1.97049401       3.94093312      11.91518756       0.06646507      -0.16848182      -0.02048372
O        0.39419145       2.75866935      16.91030806      -0.00461384      -0.00341854       0.01716623
O        1.97043419       1.97038596       9.93853233      -0.01276321      -0.01800441      -0.00910350
O        0.39416160       0.78814187      14.96039189       0.05157684       0.06014659       0.01279381
10
Lattice="3.940949890606662 0.0 0.0 0.0 3.940949890606662 0.0 0.0 0.0 26.940967945119528" Properties=species:S:1:pos:R:3:forces:R:3 tau=tau67 tau_p=6 tau_q=7 stage=B constraint=xy_fixed_z_free force_label=raw_dft energy=-15499.269590349064 free_energy=-15499.269590349064 stress="0.010512904694033723 3.2135516531980806e-05 -0.0011522878070753118 3.2135516531980806e-05 0.010343045535221824 -0.0017931618224845292 -0.0011522878070753118 -0.0017931618224845292 -0.001142188073308118" pbc="T T T"
Sr       0.00003612       0.00009431      10.31438180       0.00039569       0.00047720      -0.12259328
Sr       2.36447194       2.75865092      15.32240674       0.08027267       0.16441331       0.13616177
Ti       1.97047269       1.97057450      11.73783232      -0.08639652      -0.13253060       0.01454807
Ti       0.39382079       0.78812580      16.78762749       0.01067393       0.00644910      -0.03998554
O        0.00000902       1.97050521      11.86708774      -0.09958577       0.09868845       0.00830749
O        2.36475793       0.78819359      16.92092549      -0.00275828      -0.01195512       0.00573947
O        1.97049401       3.94093312      11.90382154       0.06433132      -0.16370420      -0.01548935
O        0.39419145       2.75866935      16.92230453      -0.00441227      -0.00331595       0.00914490
O        1.97043419       1.97038596       9.92684521      -0.01234798      -0.01739866       0.00112306
O        0.39416160       0.78814187      14.97208710       0.04982721       0.05887621       0.00304367
10
Lattice="3.940949890606662 0.0 0.0 0.0 3.940949890606662 0.0 0.0 0.0 26.940967945119528" Properties=species:S:1:pos:R:3:forces:R:3 tau=tau67 tau_p=6 tau_q=7 stage=B constraint=xy_fixed_z_free force_label=raw_dft energy=-15499.271574195005 free_energy=-15499.271574195005 stress="0.010588193618480077 2.66265708407841e-05 -0.001110052556776137 2.66265708407841e-05 0.010457815237121755 -0.001738072365572562 -0.001110052556776137 -0.001738072365572562 -0.0008887765715130693" pbc="T T T"
Sr       0.00003612       0.00009431      10.30054067       0.00036175       0.00043580      -0.15803748
Sr       2.36447194       2.75865092      15.33364972       0.07668907       0.15698230       0.17804889
Ti       1.97047269       1.97057450      11.71935215      -0.08241980      -0.12725315       0.03116794
Ti       0.39382079       0.78812580      16.80730677       0.01019160       0.00689236      -0.06714616
O        0.00000902       1.97050521      11.84863071      -0.09457083       0.09316392       0.02698630
O        2.36475793       0.78819359      16.93999622      -0.00264309      -0.01123521      -0.00725128
O        1.97049401       3.94093312      11.88617529       0.06102770      -0.15623154      -0.00845250
O        0.39419145       2.75866935      16.94078228      -0.00416287      -0.00318868      -0.00131152
O        1.97043419       1.97038596       9.90888407      -0.01172089      -0.01645069       0.01403719
O        0.39416160       0.78814187      14.99000207       0.04724788       0.05688489      -0.00804138
10
Lattice="3.940949890606662 0.0 0.0 0.0 3.940949890606662 0.0 0.0 0.0 26.940967945119528" Properties=species:S:1:pos:R:3:forces:R:3 tau=tau67 tau_p=6 tau_q=7 stage=B constraint=xy_fixed_z_free force_label=raw_dft energy=-15499.273740765386 free_energy=-15499.273740765386 stress="0.010671745961463227 2.3872097995185745e-05 -0.0010512904694033722 2.3872097995185745e-05 0.01058360283040408 -0.0016609471258958082 -0.0010512904694033722 -0.0016609471258958082 -0.0005839482432668513" pbc="T T T"
Sr       0.00003612       0.00009431      10.27937660       0.00033321       0.00028616      -0.18398171
Sr       2.36447194       2.75865092      15.35164845       0.07194461       0.14690178       0.20816191
Ti       1.97047269       1.97057450      11.69500269      -0.07689887      -0.11992448       0.04136725
Ti       0.39382079       0.78812580      16.83289193       0.00884331       0.00708647      -0.08840841
O        0.00000902       1.97050521      11.82430555      -0.08795950       0.08603554       0.04595718
O        2.36475793       0.78819359      16.96546631      -0.00240192      -0.01029418      -0.02085730
O        1.97049401       3.94093312      11.86226073       0.05669102      -0.14611116      -0.00081093
O        0.39419145       2.75866935      16.96558375      -0.00385563      -0.00294186      -0.01143035
O        1.97043419       1.97038596       9.88484445      -0.01072510      -0.01516385       0.02447176
O        0.39416160       0.78814187      15.01393951       0.04402860       0.05412532      -0.01446965
10
Lattice="3.940949890606662 0.0 0.0 0.0 3.940949890606662 0.0 0.0 0.0 26.940967945119528" Properties=species:S:1:pos:R:3:forces:R:3 tau=tau67 tau_p=6 tau_q=7 stage=B constraint=xy_fixed_z_free force_label=raw_dft energy=-15499.276298907584 free_energy=-15499.276298907584 stress="0.010763561722983173 2.2035782764786838e-05 -0.00098793759395461 2.2035782764786838e-05 0.010713063054147202 -0.00157372215245186 -0.00098793759395461 -0.00157372215245186 -0.00031492806201341195" pbc="T T T"
Sr       0.00003612       0.00009431      10.25270335       0.00026020       0.00013473      -0.18701639
Sr       2.36447194       2.75865092      15.37514832       0.06665765       0.13583318       0.21889524
Ti       1.97047269       1.97057450      11.66828783      -0.07170601      -0.11149615       0.05281354
Ti       0.39382079       0.78812580      16.86042811       0.00857309       0.00648664      -0.08971890
O        0.00000902       1.97050521      11.79785804      -0.08098589       0.07864285       0.05483675
O        2.36475793       0.78819359      16.99360998      -0.00224226      -0.00927345      -0.03290241
O        1.97049401       3.94093312      11.83537987       0.05200725      -0.13499783       0.00088497
O        0.39419145       2.75866935      16.99318730      -0.00352858      -0.00262870      -0.02083648
O        1.97043419       1.97038596       9.85811983      -0.00970463      -0.01381711       0.02570820
O        0.39416160       0.78814187      15.04059734       0.04066868       0.05111584      -0.02266427
10
Lattice="3.940949890606662 0.0 0.0 0.0 3.940949890606662 0.0 0.0 0.0 26.940967945119528" Properties=species:S:1:pos:R:3:forces:R:3 tau=tau67 tau_p=6 tau_q=7 stage=B constraint=xy_fixed_z_free force_label=raw_dft energy=-15499.279891762655 free_energy=-15499.279891762655 stress="0.010908630626184685 1.5608679458390678e-05 -0.0009053034085866594 1.5608679458390678e-05 0.010893021946726296 -0.001451607189630333 -0.0009053034085866594 -0.001451607189630333 3.488998937757916e-05" pbc="T T T"
Sr       0.00003612       0.00009431      10.21048785       0.00002083      -0.00004397      -0.15777960
Sr       2.36447194       2.75865092      15.41359688       0.05930558       0.12086653       0.20559775
Ti       1.97047269       1.97057450      11.63102138      -0.06468073      -0.10058593       0.06419556
Ti       0.39382079       0.78812580      16.89873368       0.00816917       0.00580786      -0.08241645
O        0.00000902       1.97050521      11.76093405      -0.07179497       0.06915136       0.05207615
O        2.36475793       0.78819359      17.03330640      -0.00204428      -0.00788223      -0.04223988
O        1.97049401       3.94093312      11.79651306       0.04582914      -0.11998130      -0.00428577
O        0.39419145       2.75866935      17.03242817      -0.00290329      -0.00231399      -0.02963325
O        1.97043419       1.97038596       9.81985650      -0.00852681      -0.01212018       0.02390432
O        0.39416160       0.78814187      15.07844199       0.03662536       0.04710158      -0.02941882
10
Lattice="3.940949890606662 0.0 0.0 0.0 3.940949890606662 0.0 0.0 0.0 26.940967945119528" Properties=species:S:1:pos:R:3:forces:R:3 tau=tau67 tau_p=6 tau_q=7 stage=B constraint=xy_fixed_z_free force_label=raw_dft energy=-15499.28366625371 free_energy=-15499.28366625371 stress="0.01101972769762382 4.590788075997259e-06 -0.0008364415874467004 4.590788075997259e-06 0.011000446387704631 -0.001347855379112795 -0.0008364415874467004 -0.001347855379112795 0.0003039101706310185" pbc="T T T"
Sr       0.00003612       0.00009431      10.16816244      -0.00028668      -0.00039081      -0.08424554
Sr       2.36447194       2.75865092      15.45441132       0.05329203       0.10814188       0.13823485
Ti       1.97047269       1.97057450      11.60095417      -0.05789224      -0.09252269       0.03744246
Ti       0.39382079       0.78812580      16.92953167       0.00673835       0.00628146      -0.04608548
O        0.00000902       1.97050521      11.73065841      -0.06444881       0.06179646       0.03318651
O        2.36475793       0.78819359      17.06629420      -0.00177869      -0.00686690      -0.03667447
O        1.97049401       3.94093312      11.76238166       0.04070416      -0.10744280      -0.01367493
O        0.39419145       2.75866935      17.06550378      -0.00260710      -0.00208491      -0.02804302
O        1.97043419       1.97038596       9.78715190      -0.00753076      -0.01087217       0.02213334
O        0.39416160       0.78814187      15.11027041       0.03381001       0.04396021      -0.02227347
10
Lattice="3.940949890606662 0.0 0.0 0.0 3.940949890606662 0.0 0.0 0.0 26.940967945119528" Properties=species:S:1:pos:R:3:forces:R:3 tau=tau67 tau_p=6 tau_q=7 stage=B constraint=xy_fixed_z_free force_label=raw_dft energy=-15499.285428871099 free_energy=-15499.285428871099 stress="0.011006873491011027 3.672630460797807e-06 -0.0007877792338411295 3.672630460797807e-06 0.01095178403409906 -0.0012716482970512406 -0.0007877792338411295 -0.0012716482970512406 0.00043979749768053737" pbc="T T T"
Sr       0.00003612       0.00009431      10.13482349      -0.00046100      -0.00057438       0.00004422
Sr       2.36447194       2.75865092      15.48870855       0.04918186       0.09899287       0.03190122
Ti       1.97047269       1.97057450      11.58125469      -0.05368515      -0.08666392      -0.00101430
Ti       0.39382079       0.78812580      16.94950202       0.00603309       0.00616499      -0.02094601
O        0.00000902       1.97050521      11.71078131      -0.05947296       0.05694274       0.01317485
O        2.36475793       0.78819359      17.08803855      -0.00166376      -0.00612077      -0.01715363
O        1.97049401       3.94093312      11.73784526       0.03722289      -0.09859898      -0.01754778
O        0.39419145       2.75866935      17.08767036      -0.00237596      -0.00187922      -0.01072459
O        1.97043419       1.97038596       9.76494913      -0.00683553      -0.01000571       0.00919709
O        0.39416160       0.78814187      15.13174659       0.03205703       0.04174237       0.01306943
10
Lattice="3.940949890606662 0.0 0.0 0.0 3.940949890606662 0.0 0.0 0.0 26.940967945119528" Properties=species:S:1:pos:R:3:forces:R:3 tau=tau67 tau_p=6 tau_q=7 stage=B constraint=xy_fixed_z_free force_label=raw_dft energy=-15499.285534995497 free_energy=-15499.285534995497 stress="0.01095178403409906 4.590788075997259e-06 -0.0007914518643019274 4.590788075997259e-06 0.010878331424883104 -0.0012753209275120385 -0.0007914518643019274 -0.0012753209275120385 0.00032961858385660315" pbc="T T T"
Sr       0.00003612       0.00009431      10.13660831      -0.00047437      -0.00059881       0.00960333
Sr       2.36447194       2.75865092      15.48821054       0.04946623       0.09945850       0.01403540
Ti       1.97047269       1.97057450      11.58423218      -0.05399677      -0.08718559      -0.00095928
Ti       0.39382079       0.78812580      16.94585383       0.00609017       0.00616139      -0.00355352
O        0.00000902       1.97050521      11.71405254      -0.05990259       0.05740836       0.00919992
O        2.36475793       0.78819359      17.08458589      -0.00168870      -0.00617579      -0.01172397
O        1.97049401       3.94093312      11.74012008       0.03742189      -0.09905432      -0.01655893
O        0.39419145       2.75866935      17.08448920      -0.00240347      -0.00189362      -0.00640230
O        1.97043419       1.97038596       9.76797036      -0.00688310      -0.01008130       0.00168150
O        0.39416160       0.78814187      15.12919704       0.03237045       0.04196117       0.00467761
