10
Lattice="3.940949890606662 0.0 0.0 0.0 3.940949890606662 0.0 0.0 0.0 26.940967945119528" Properties=species:S:1:pos:R:3:forces:R:3 tau=tau81 tau_p=8 tau_q=1 stage=A constraint=rigid_scf force_label=raw_dft energy=-15499.600761462294 free_energy=-15499.600761462294 stress="0.011251103416654081 -0.000892449201973867 -0.013130572054967359 -0.000892449201973867 0.008552638185582892 0.005570462251415074 -0.013130572054967359 0.005570462251415074 -0.006729177161796781" pbc="T T T"
Sr       0.00003626       0.00009419      10.75260867      -0.00051294      -0.00200546       0.19573397
Sr       3.15266178       0.39408080      14.64522241       0.70636457      -0.45165258       1.63853319
Ti       1.97047258       1.97057465      12.38212169      -0.59831550       0.55400357      -0.63503060
Ti       1.18201068       2.36450570      16.28444791       0.12342478      -0.03812817      -0.01610076
O        0.00000906       1.97050529      12.45001441      -1.64886774      -0.40875115      -1.02805251
O        3.15294790       2.36457348      16.39256827       0.00225511       0.00599864      -0.08295793
O        1.97049386       3.94093294      12.44909065       0.27748528       0.67098953      -0.40667524
O        1.18238152       0.39409932      16.37955485       0.04046145      -0.00829669      -0.01155839
O        1.97043435       1.97038588      10.49176941      -0.27088423       0.12779977       0.17391533
O        1.18235157       2.36452185      14.44792112       1.36858896      -0.44995771       0.17219321
