10
Lattice="3.940949890606662 0.0 0.0 0.0 3.940949890606662 0.0 0.0 0.0 26.940967945119528" Properties=species:S:1:pos:R:3:forces:R:3 tau=tau38 tau_p=3 tau_q=8 stage=A constraint=rigid_scf force_label=raw_dft energy=-15498.233462893786 free_energy=-15498.233462893786 stress="0.01481906390931915 -0.0019070133667692612 0.012771572427424372 -0.0019070133667692612 0.009300018484355247 -0.006839356075620716 0.012771572427424372 -0.006839356075620716 -0.015699577062295425" pbc="T T T"
Sr       0.00003626       0.00009419      10.75260867       0.00627632       0.00352653       0.40437848
Sr       1.18218684       3.15274573      14.64522241      -1.04601733       1.03012997       3.41172868
Ti       1.97047258       1.97057465      12.38212169       0.88891778      -1.21069340      -2.46097381
Ti       3.15248562       1.18222073      16.28444791      -0.12385698       0.04528715      -0.18903342
O        0.00000906       1.97050529      12.45001441       1.45949725       0.83285359      -1.45055624
O        1.18247295       1.18228851      16.39256827       0.01641058      -0.07790545      -0.16383224
O        1.97049386       3.94093294      12.44909065      -0.35577666      -0.66662123      -0.76771289
O        3.15285647       3.15276425      16.37955485       0.00417187      -0.00754747      -0.04769576
O        1.97043435       1.97038588      10.49176941       0.22290590      -0.14810531       0.32628019
O        3.15282651       1.18223689      14.44792112      -1.07252848       0.19907563       0.93741701
