10
Lattice="3.940949890606662 0.0 0.0 0.0 3.940949890606662 0.0 0.0 0.0 26.940967945119528" Properties=species:S:1:pos:R:3:forces:R:3 tau=tau62 tau_p=6 tau_q=2 stage=B constraint=xy_fixed_z_free force_label=raw_dft energy=-15499.356828685168 free_energy=-15499.356828685168 stress="0.01016400480025793 -4.5907880759972583e-05 -0.0012854206612792323 -4.5907880759972583e-05 0.00994640144545566 0.0019125223124604577 -0.0012854206612792323 0.0019125223124604577 -0.0006518919067916107" pbc="T T T"
Sr       0.00003626       0.00009419      10.31788722       0.00037461       0.00010002       0.02754911
Sr       2.36447180       0.78817579      15.31338958       0.05762536      -0.17553281      -0.11815710
Ti       1.97047258       1.97057465      11.77611198      -0.09481071       0.13521714      -0.04394607
Ti       0.39382070       2.75860069      16.75927286       0.01699114      -0.00687384       0.00396618
O        0.00000906       1.97050529      11.86471714      -0.10771302      -0.10132435       0.04167450
O        2.36475792       2.75866847      16.88503449      -0.00312132       0.01324530       0.10146576
O        1.97049386       3.94093294      11.95843766       0.07144504       0.18232387      -0.02016876
O        0.39419154       0.78819431      16.89369788      -0.00149638       0.00320617       0.08502818
O        1.97043435       1.97038588       9.95776203      -0.01514148       0.01858676      -0.01705078
O        0.39416159       2.75861684      14.94900857       0.07584651      -0.06894799      -0.06036102
10
Lattice="3.940949890606662 0.0 0.0 0.0 3.940949890606662 0.0 0.0 0.0 26.940967945119528" Properties=species:S:1:pos:R:3:forces:R:3 tau=tau62 tau_p=6 tau_q=2 stage=B constraint=xy_fixed_z_free force_label=raw_dft energy=-15499.35756216802 free_energy=-15499.35756216802 stress="0.01028428344784906 -4.5907880759972583e-05 -0.0012890932917400302 -4.5907880759972583e-05 0.010032708261284409 0.0019134404700756574 -0.0012890932917400302 0.0019134404700756574 -0.0005463037810436738" pbc="T T T"
Sr       0.00003612       0.00009431      10.31845411       0.00041600       0.00004422       0.02567092
Sr       2.36447194       0.78817596      15.31095774       0.05777783      -0.17588865      -0.09466056
Ti       1.97047269       1.97057450      11.77520757      -0.09493258       0.13552439      -0.02291804
Ti       0.39382079       2.75860075      16.75935452       0.01706313      -0.00684813       0.00684890
O        0.00000902       1.97050521      11.86557490      -0.10819819      -0.10179743       0.03220152
O        2.36475793       2.75866855      16.88712297      -0.00311155       0.01322961       0.07820062
O        1.97049401       3.94093312      11.95802274       0.07158337       0.18269333      -0.02377396
O        0.39419145       0.78819439      16.89544787      -0.00148738       0.00320539       0.06341472
O        1.97043419       1.97038596       9.95741109      -0.01515537       0.01863253      -0.02229455
O        0.39416160       2.75861683      14.94776645       0.07604449      -0.06879526      -0.04268931
10
Lattice="3.940949890606662 0.0 0.0 0.0 3.940949890606662 0.0 0.0 0.0 26.940967945119528" Properties=species:S:1:pos:R:3:forces:R:3 tau=tau62 tau_p=6 tau_q=2 stage=B constraint=xy_fixed_z_free force_label=raw_dft energy=-15499.358144763748 free_energy=-15499.358144763748 stress="0.010460569709967353 -4.5907880759972583e-05 -0.001292765922200828 -4.5907880759972583e-05 0.010161250327412332 0.0019152767853060563 -0.001292765922200828 0.0019152767853060563 -0.0003544088394669884" pbc="T T T"
Sr       0.00003612       0.00009431      10.31917512       0.00045663       0.00000206       0.01815790
Sr       2.36447194       0.78817596      15.30828267       0.05801540      -0.17640802      -0.06774754
Ti       1.97047269       1.97057450      11.77454477      -0.09508094       0.13590877      -0.01684715
Ti       0.39382079       2.75860075      16.75954354       0.01714360      -0.00682628       0.00981339
O        0.00000902       1.97050521      11.86648636      -0.10879854      -0.10234867       0.02492479
O        2.36475793       2.75866855      16.88933669      -0.00310718       0.01323244       0.05426262
O        1.97049401       3.94093312      11.95736029       0.07173198       0.18313891      -0.02363692
O        0.39419145       0.78819439      16.89724574      -0.00149253       0.00321979       0.04152100
O        1.97043419       1.97038596       9.95679170      -0.01518108       0.01871069      -0.01655713
O        0.39416160       2.75861683      14.94655308       0.07631291      -0.06862969      -0.02389095
10
Lattice="3.940949890606662 0.0 0.0 0.0 3.940949890606662 0.0 0.0 0.0 26.940967945119528" Properties=species:S:1:pos:R:3:forces:R:3 tau=tau62 tau_p=6 tau_q=2 stage=B constraint=xy_fixed_z_free force_label=raw_dft energy=-15499.35864382053 free_energy=-15499.35864382053 stress="0.010692863586612814 -4.5907880759972583e-05 -0.001299193025507224 -4.5907880759972583e-05 0.01031458264915064 0.0019180312581516547 -0.001299193025507224 0.0019180312581516547 -0.00011201522905433311" pbc="T T T"
Sr       0.00003612       0.00009431      10.32024537       0.00052013      -0.00007688       0.00751739
Sr       2.36447194       0.78817596      15.30427008       0.05839310      -0.17711584      -0.02811810
Ti       1.97047269       1.97057450      11.77352435      -0.09531311       0.13651015      -0.00772411
Ti       0.39382079       2.75860075      16.76003452       0.01726830      -0.00677820       0.01170546
O        0.00000902       1.97050521      11.86793442      -0.10967323      -0.10317426       0.01392381
O        2.36475793       2.75866855      16.89258633      -0.00309664       0.01322704       0.02063002
O        1.97049401       3.94093312      11.95608848       0.07190296       0.18366495      -0.02214517
O        0.39419145       0.78819439      16.89978040      -0.00149433       0.00322699       0.01127892
O        1.97043419       1.97038596       9.95584204      -0.01520448       0.01882279      -0.00732739
O        0.39416160       2.75861683      14.94501398       0.07669704      -0.06830675       0.00025942
10
Lattice="3.940949890606662 0.0 0.0 0.0 3.940949890606662 0.0 0.0 0.0 26.940967945119528" Properties=species:S:1:pos:R:3:forces:R:3 tau=tau62 tau_p=6 tau_q=2 stage=B constraint=xy_fixed_z_free force_label=raw_dft energy=-15499.358757972284 free_energy=-15499.358757972284 stress="0.01085170485404232 -4.5907880759972583e-05 -0.0013037838135832214 -4.5907880759972583e-05 0.010402725780209787 0.001918949415766854 -0.0013037838135832214 0.001918949415766854 3.764446222317752e-05" pbc="T T T"
Sr       0.00003612       0.00009431      10.32098991       0.00056616      -0.00013215      -0.00044789
Sr       2.36447194       0.78817596      15.30146620       0.05869160      -0.17754933       0.00012727
Ti       1.97047269       1.97057450      11.77277696      -0.09543858       0.13691304      -0.00251017
Ti       0.39382079       2.75860075      16.76063287       0.01736343      -0.00673475       0.01059217
O        0.00000902       1.97050521      11.86906854      -0.11029184      -0.10376355       0.00606883
O        2.36475793       2.75866855      16.89479587      -0.00308944       0.01322216      -0.00041343
O        1.97049401       3.94093312      11.95478764       0.07195412       0.18387784      -0.01913903
O        0.39419145       0.78819439      16.90135388      -0.00150127       0.00323008      -0.00683168
O        1.97043419       1.97038596       9.95516998      -0.01521193       0.01891432      -0.00124030
O        0.39416160       2.75861683      14.94427811       0.07695775      -0.06797765       0.01379448
