Sr Ti O
 1.0000000000000000
     3.9409498906066620    0.0000000000000000    0.0000000000000000
     0.0000000000000000    3.9409498906066620    0.0000000000000000
     0.0000000000000000    0.0000000000000000   26.9409679451195281
 Sr  Ti  O
   2   2   6
Cartesian
  0.0000361212000000  0.0000943054000000 10.1513150506999992
  2.7585669358999998  1.5763659430000001 15.4731873250999996
  1.9704726885999999  1.9705745045000000 11.6004903453000008
  0.7879157806000000  3.5467907382999999 16.9304857792000014
  0.0000090208000000  1.9705052130000000 11.7562454884999994
  2.7588529197999998  3.5468585336000000 17.0688100184000007
  1.9704940097000001  3.9409331233999998 11.7303977975000002
  0.7882864444000000  1.5763843726000000 17.0655578000999988
  1.9704341934000000  1.9703859550000000  9.7839149334000002
  0.7882565922000000  3.5468068096000001 15.1149154249999995
