10
Lattice="3.940949890606662 0.0 0.0 0.0 3.940949890606662 0.0 0.0 0.0 26.940967945119528" Properties=species:S:1:pos:R:3:forces:R:3 tau=tau74 tau_p=7 tau_q=4 stage=B constraint=xy_fixed_z_free force_label=raw_dft energy=-15499.167586980016 free_energy=-15499.167586980016 stress="0.009757260976724573 -9.640654959594242e-05 -0.0024037366365921645 -9.640654959594242e-05 0.00792094574632567 0.0013267377539632078 -0.0024037366365921645 0.0013267377539632078 -0.0021842969665594957" pbc="T T T"
Sr       0.00003626       0.00009419      10.47850969       0.00571736      -0.00423461      -0.63095900
Sr       2.75856679       1.57636577      15.20969807       0.24375344      -0.10008250       0.20500820
Ti       1.97047258       1.97057465      11.83925939      -0.17421692       0.12023533       0.03625358
Ti       0.78791569       3.54679066      16.65133301       0.00889345      -0.01085777       0.23588997
O        0.00000906       1.97050529      12.07353783      -0.26262919      -0.11108580      -0.18025053
O        2.75885291       3.54685845      16.82472850      -0.00559112       0.00553559      -0.28256629
O        1.97049386       3.94093294      11.90067516       0.13147465       0.12849628       0.48182962
O        0.78828653       1.57638429      16.83142890      -0.01872766       0.00329127      -0.31880702
O        1.97043435       1.97038588      10.04141618      -0.02313299       0.02189294       0.00772925
O        0.78825658       3.54680682      14.82473308       0.09445899      -0.05319098       0.44587248
10
Lattice="3.940949890606662 0.0 0.0 0.0 3.940949890606662 0.0 0.0 0.0 26.940967945119528" Properties=species:S:1:pos:R:3:forces:R:3 tau=tau74 tau_p=7 tau_q=4 stage=B constraint=xy_fixed_z_free force_label=raw_dft energy=-15499.188493214126 free_energy=-15499.188493214126 stress="0.009945483287840461 -9.181576151994517e-05 -0.00237802822336658 -9.181576151994517e-05 0.008207410922267898 0.0013386738029608006 -0.00237802822336658 0.0013386738029608006 -0.0025442147517176807" pbc="T T T"
Sr       0.00003612       0.00009431      10.46552338       0.00485013      -0.00363400      -0.49167746
Sr       2.75856694       1.57636594      15.21391743       0.24160219      -0.10093303       0.17769562
Ti       1.97047269       1.97057450      11.84000569      -0.17364177       0.11908013       0.08907921
Ti       0.78791578       3.54679074      16.65618801       0.00890964      -0.01121310       0.17487590
O        0.00000902       1.97050521      12.06982806      -0.25707895      -0.10815525      -0.20193907
O        2.75885292       3.54685853      16.81891281      -0.00558624       0.00572996      -0.19263245
O        1.97049401       3.94093312      11.91059230       0.13147516       0.12889172       0.37595287
O        0.78828644       1.57638437      16.82486729      -0.01880248       0.00326479      -0.22670239
O        1.97043419       1.97038596      10.04157519      -0.02304171       0.02134787      -0.05332185
O        0.78825659       3.54680681      14.83390982       0.09131401      -0.05437883       0.34866936
10
Lattice="3.940949890606662 0.0 0.0 0.0 3.940949890606662 0.0 0.0 0.0 26.940967945119528" Properties=species:S:1:pos:R:3:forces:R:3 tau=tau74 tau_p=7 tau_q=4 stage=B constraint=xy_fixed_z_free force_label=raw_dft energy=-15499.206080883918 free_energy=-15499.206080883918 stress="0.010057498516894794 -8.630681582874845e-05 -0.002352319810140995 -8.630681582874845e-05 0.008517748196205313 0.0013570369552647896 -0.002352319810140995 0.0013570369552647896 -0.0027508002151375574" pbc="T T T"
Sr       0.00003612       0.00009431      10.45123854       0.00391065      -0.00297965      -0.35832076
Sr       2.75856694       1.57636594      15.21904851       0.23947461      -0.10218747       0.14559874
Ti       1.97047269       1.97057450      11.84248674      -0.17356078       0.11812008       0.04934667
Ti       0.78791578       3.54679074      16.66128446       0.00893458      -0.01166098       0.12646485
O        0.00000902       1.97050521      12.06406919      -0.25084737      -0.10482285      -0.20261347
O        2.75885292       3.54685853      16.81326773      -0.00557981       0.00597190      -0.09881032
O        1.97049401       3.94093312      11.92151412       0.13171530       0.12960237       0.27761332
O        0.78828644       1.57638437      16.81824262      -0.01890738       0.00326350      -0.12960802
O        1.97043419       1.97038596      10.04013040      -0.02303246       0.02074186      -0.04456879
O        0.78825659       3.54680681      14.84403766       0.08789265      -0.05604851       0.23489778
10
Lattice="3.940949890606662 0.0 0.0 0.0 3.940949890606662 0.0 0.0 0.0 26.940967945119528" Properties=species:S:1:pos:R:3:forces:R:3 tau=tau74 tau_p=7 tau_q=4 stage=B constraint=xy_fixed_z_free force_label=raw_dft energy=-15499.222217370609 free_energy=-15499.222217370609 stress="0.01016492295787313 -7.98797125223523e-05 -0.002309166402226621 -7.98797125223523e-05 0.00902640751502581 0.0013836635261055736 -0.002309166402226621 0.0013836635261055736 -0.0029931938255502123" pbc="T T T"
Sr       0.00003612       0.00009431      10.42981127       0.00259501      -0.00208259      -0.16871373
Sr       2.75856694       1.57636594      15.22739101       0.23542280      -0.10395381       0.09408952
Ti       1.97047269       1.97057450      11.84550638      -0.17319619       0.11648794      -0.00407186
Ti       0.78791578       3.54679074      16.66889758       0.00884048      -0.01227265       0.06204200
O        0.00000902       1.97050521      12.05320618      -0.24099670      -0.09968116      -0.19448519
O        2.75885292       3.54685853      16.80648659      -0.00554561       0.00632877       0.03011867
O        1.97049401       3.94093312      11.93804595       0.13237787       0.13079202       0.13670247
O        0.78828644       1.57638437      16.80975183      -0.01893180       0.00324165       0.00545357
O        1.97043419       1.97038596      10.03778649      -0.02309751       0.01980187      -0.04386791
O        0.78825659       3.54680681      14.85843669       0.08253138      -0.05866229       0.08273244
10
Lattice="3.940949890606662 0.0 0.0 0.0 3.940949890606662 0.0 0.0 0.0 26.940967945119528" Properties=species:S:1:pos:R:3:forces:R:3 tau=tau74 tau_p=7 tau_q=4 stage=B constraint=xy_fixed_z_free force_label=raw_dft energy=-15499.228301563924 free_energy=-15499.228301563924 stress="0.010161250327412332 -7.437076683115559e-05 -0.0022586677333906514 -7.437076683115559e-05 0.009542412094767902 0.0014084537817159587 -0.0022586677333906514 0.0014084537817159587 -0.0031318356254453296" pbc="T T T"
Sr       0.00003612       0.00009431      10.40965962       0.00145730      -0.00135831      -0.00528362
Sr       2.75856694       1.57636594      15.23615875       0.23035413      -0.10544351       0.04234067
Ti       1.97047269       1.97057450      11.84721670      -0.17264495       0.11465243      -0.05505040
Ti       0.78791578       3.54679074      16.67617128       0.00865433      -0.01263054       0.01190061
O        0.00000902       1.97050521      12.03938487      -0.23079199      -0.09457366      -0.17229528
O        2.75885292       3.54685853      16.80293525      -0.00545460       0.00660671       0.13213670
O        1.97049401       3.94093312      11.95381667       0.13343640       0.13208657       0.01229476
O        0.78828644       1.57638437      16.80422253      -0.01876880       0.00318868       0.11500853
O        1.97043419       1.97038596      10.03481532      -0.02325177       0.01884284      -0.04825909
O        0.78825659       3.54680681      14.87093897       0.07700994      -0.06137146      -0.03279262
10
Lattice="3.940949890606662 0.0 0.0 0.0 3.940949890606662 0.0 0.0 0.0 26.940967945119528" Properties=species:S:1:pos:R:3:forces:R:3 tau=tau74 tau_p=7 tau_q=4 stage=B constraint=xy_fixed_z_free force_label=raw_dft energy=-15499.22998050631 free_energy=-15499.22998050631 stress="0.010121769549958755 -7.345260921595614e-05 -0.002235713793010665 -7.345260921595614e-05 0.009725125460192592 0.001414880885022355 -0.002235713793010665 0.001414880885022355 -0.0030721553804573657" pbc="T T T"
Sr       0.00003612       0.00009431      10.40455512       0.00121485      -0.00120353       0.02486308
Sr       2.75856694       1.57636594      15.23921111       0.22778200      -0.10565923       0.03154332
Ti       1.97047269       1.97057450      11.84630497      -0.17222972       0.11382017      -0.06769843
Ti       0.78791578       3.54679074      16.67826805       0.00844710      -0.01270768       0.00898909
O        0.00000902       1.97050521      12.03230324      -0.22702738      -0.09280654      -0.15304492
O        2.75885292       3.54685853      16.80490718      -0.00538338       0.00665170       0.13764786
O        1.97049401       3.94093312      11.95798325       0.13407583       0.13261056      -0.01956969
O        0.78828644       1.57638437      16.80534280      -0.01852506       0.00317994       0.12397114
O        1.97043419       1.97038596      10.03309273      -0.02336284       0.01852146      -0.05110967
O        0.78825659       3.54680681      14.87335151       0.07500859      -0.06240710      -0.03559178
10
Lattice="3.940949890606662 0.0 0.0 0.0 3.940949890606662 0.0 0.0 0.0 26.940967945119528" Properties=species:S:1:pos:R:3:forces:R:3 tau=tau74 tau_p=7 tau_q=4 stage=B constraint=xy_fixed_z_free force_label=raw_dft energy=-15499.231910881883 free_energy=-15499.231910881883 stress="0.01006392562020119 -7.345260921595614e-05 -0.0022109235374002797 -7.345260921595614e-05 0.009888557515698095 0.0014194716730983525 -0.0022109235374002797 0.0014194716730983525 -0.0029830940917830186" pbc="T T T"
Sr       0.00003612       0.00009431      10.40068278       0.00107164      -0.00112357       0.04016577
Sr       2.75856694       1.57636594      15.24213640       0.22491548      -0.10565306       0.02463682
Ti       1.97047269       1.97057450      11.84453357      -0.17166870       0.11291874      -0.07546136
Ti       0.78791578       3.54679074      16.68018203       0.00820773      -0.01271642       0.01474091
O        0.00000902       1.97050521      12.02451345      -0.22329594      -0.09112195      -0.12978260
O        2.75885292       3.54685853      16.80831387      -0.00529210       0.00665530       0.12936326
O        1.97049401       3.94093312      11.96108913       0.13469212       0.13302733      -0.04410830
O        0.78828644       1.57638437      16.80787867      -0.01821190       0.00316888       0.11929584
O        1.97043419       1.97038596      10.03099719      -0.02347263       0.01821215      -0.05406979
O        0.78825659       3.54680681      14.87499288       0.07305430      -0.06336741      -0.02478081
10
Lattice="3.940949890606662 0.0 0.0 0.0 3.940949890606662 0.0 0.0 0.0 26.940967945119528" Properties=species:S:1:pos:R:3:forces:R:3 tau=tau74 tau_p=7 tau_q=4 stage=B constraint=xy_fixed_z_free force_label=raw_dft energy=-15499.23466807535 free_energy=-15499.23466807535 stress="0.00996568275537485 -7.253445160075668e-05 -0.0021741972327923016 -7.253445160075668e-05 0.010096979294348371 0.0014222261459439507 -0.0021741972327923016 0.0014222261459439507 -0.002838025188581505" pbc="T T T"
Sr       0.00003612       0.00009431      10.39618472       0.00095105      -0.00106032       0.04763406
Sr       2.75856694       1.57636594      15.24626196       0.22055437      -0.10540469       0.01972139
Ti       1.97047269       1.97057450      11.84109077      -0.17063075       0.11150360      -0.08139830
Ti       0.78791578       3.54679074      16.68303867       0.00784058      -0.01267760       0.02785045
O        0.00000902       1.97050521      12.01282877      -0.21799175      -0.08876631      -0.09396971
O        2.75885292       3.54685853      16.81433774      -0.00515660       0.00662625       0.10802490
O        1.97049401       3.94093312      11.96436545       0.13541178       0.13342226      -0.07255962
O        0.78828644       1.57638437      16.81266466      -0.01770719       0.00315166       0.10315266
O        1.97043419       1.97038596      10.02751281      -0.02360324       0.01777686      -0.05791358
O        0.78825659       3.54680681      14.87703441       0.07033150      -0.06457171      -0.00054276
10
Lattice="3.940949890606662 0.0 0.0 0.0 3.940949890606662 0.0 0.0 0.0 26.940967945119528" Properties=species:S:1:pos:R:3:forces:R:3 tau=tau74 tau_p=7 tau_q=4 stage=B constraint=xy_fixed_z_free force_label=raw_dft energy=-15499.23810636976 free_energy=-15499.23810636976 stress="0.009809595960790942 -7.161629398555724e-05 -0.002118189618265135 -7.161629398555724e-05 0.01036508131798661 0.0014231443035591501 -0.002118189618265135 0.0014231443035591501 -0.0026231763066248332" pbc="T T T"
Sr       0.00003612       0.00009431      10.39047607       0.00082018      -0.00102613       0.04304721
Sr       2.75856694       1.57636594      15.25240050       0.21389907      -0.10471718       0.01686926
Ti       1.97047269       1.97057450      11.83492096      -0.16867774       0.10919449      -0.08370792
Ti       0.78791578       3.54679074      16.68774309       0.00735284      -0.01250250       0.04952999
O        0.00000902       1.97050521      11.99530174      -0.21028410      -0.08536242      -0.04037789
O        2.75885292       3.54685853      16.82417201      -0.00495117       0.00655220       0.07139028
O        1.97049401       3.94093312      11.96761897       0.13604607       0.13360892      -0.10675992
O        0.78828644       1.57638437      16.82073429      -0.01695360       0.00311669       0.07393541
O        1.97043419       1.97038596      10.02167079      -0.02373025       0.01712663      -0.06207569
O        0.78825659       3.54680681      14.88028153       0.06647896      -0.06599071       0.03814874
10
Lattice="3.940949890606662 0.0 0.0 0.0 3.940949890606662 0.0 0.0 0.0 26.940967945119528" Properties=species:S:1:pos:R:3:forces:R:3 tau=tau74 tau_p=7 tau_q=4 stage=B constraint=xy_fixed_z_free force_label=raw_dft energy=-15499.241578814457 free_energy=-15499.241578814457 stress="0.009565366035147887 -6.886182113995888e-05 -0.0020337191176667854 -6.886182113995888e-05 0.010690109113767216 0.001416717200252754 -0.0020337191176667854 0.001416717200252754 -0.002324775081685012" pbc="T T T"
Sr       0.00003612       0.00009431      10.38264149       0.00069960      -0.00103076       0.01778021
Sr       2.75856694       1.57636594      15.26191544       0.20377689      -0.10317426       0.01721971
Ti       1.97047269       1.97057450      11.82406015      -0.16510699       0.10540546      -0.07800984
Ti       0.78791578       3.54679074      16.69604561       0.00676174      -0.01201759       0.07983738
O        0.00000902       1.97050521      11.96901120      -0.19901881      -0.08042256       0.03822073
O        2.75885292       3.54685853      16.83984193      -0.00466192       0.00640230       0.01655816
O        1.97049401       3.94093312      11.96991362       0.13606304       0.13306822      -0.14789268
O        0.78828644       1.57638437      16.83391478      -0.01585625       0.00302953       0.02965150
O        1.97043419       1.97038596      10.01167868      -0.02376265       0.01616813      -0.06514456
O        0.78825659       3.54680681      14.88629705       0.06110509      -0.06742821       0.09177938
10
Lattice="3.940949890606662 0.0 0.0 0.0 3.940949890606662 0.0 0.0 0.0 26.940967945119528" Properties=species:S:1:pos:R:3:forces:R:3 tau=tau74 tau_p=7 tau_q=4 stage=B constraint=xy_fixed_z_free force_label=raw_dft energy=-15499.243698173088 free_energy=-15499.243698173088 stress="0.009377143724032 -6.518919067916107e-05 -0.001966693611757226 -6.518919067916107e-05 0.010858131957348716 0.0014011085207943632 -0.001966693611757226 0.0014011085207943632 -0.002111762514958739" pbc="T T T"
Sr       0.00003612       0.00009431      10.37644665       0.00067209      -0.00105827      -0.01889761
Sr       2.75856694       1.57636594      15.27024025       0.19545243      -0.10122485       0.02244213
Ti       1.97047269       1.97057450      11.81333287      -0.16135395       0.10183805      -0.06626196
Ti       0.78791578       3.54679074      16.70478983       0.00619482      -0.01160699       0.09587489
O        0.00000902       1.97050521      11.94827992      -0.19016316      -0.07651140       0.09565532
O        2.75885292       3.54685853      16.85326486      -0.00441047       0.00627452      -0.02075960
O        1.97049401       3.94093312      11.96818557       0.13466384       0.13148364      -0.16928118
O        0.78828644       1.57638437      16.84560688      -0.01496845       0.00296217      -0.00026714
O        1.97043419       1.97038596      10.00188392      -0.02350785       0.01543536      -0.06239785
O        0.78825659       3.54680681      14.89328921       0.05742070      -0.06759199       0.12389272
10
Lattice="3.940949890606662 0.0 0.0 0.0 3.940949890606662 0.0 0.0 0.0 26.940967945119528" Properties=species:S:1:pos:R:3:forces:R:3 tau=tau74 tau_p=7 tau_q=4 stage=B constraint=xy_fixed_z_free force_label=raw_dft energy=-15499.246559041932 free_energy=-15499.246559041932 stress="0.009197184831452907 -5.968024498796436e-05 -0.0018959954753868678 -5.968024498796436e-05 0.010911385099030283 0.0013708093194927814 -0.0018959954753868678 0.0013708093194927814 -0.0019363944104556436" pbc="T T T"
Sr       0.00003612       0.00009431      10.36891029       0.00068751      -0.00108475      -0.06989827
Sr       2.75856694       1.57636594      15.28043534       0.18630239      -0.09820406       0.03256379
Ti       1.97047269       1.97057450      11.79918635      -0.15614258       0.09762504      -0.04537483
Ti       0.78791578       3.54679074      16.71734638       0.00577238      -0.01106397       0.09794720
O        0.00000902       1.97050521      11.92718283      -0.18093573      -0.07241281       0.14405891
O        2.75885292       3.54685853      16.86848807      -0.00417959       0.00609043      -0.04614487
O        1.97049401       3.94093312      11.96111908       0.13106995       0.12801857      -0.17732976
O        0.78828644       1.57638437      16.85943680      -0.01404465       0.00282744      -0.01953010
O        1.97043419       1.97038596       9.98886657      -0.02289207       0.01461929      -0.05331671
O        0.78825659       3.54680681      14.90434828       0.05436238      -0.06641519       0.13702514
10
Lattice="3.940949890606662 0.0 0.0 0.0 3.940949890606662 0.0 0.0 0.0 26.940967945119528" Properties=species:S:1:pos:R:3:forces:R:3 tau=tau74 tau_p=7 tau_q=4 stage=B constraint=xy_fixed_z_free force_label=raw_dft energy=-15499.25112660877 free_energy=-15499.25112660877 stress="0.009042016194484201 -5.14168264511693e-05 -0.0018170339204797148 -5.14168264511693e-05 0.010847114065966322 0.0013203106506568115 -0.0018170339204797148 0.0013203106506568115 -0.0017830620887173353" pbc="T T T"
Sr       0.00003612       0.00009431      10.35783612       0.00079550      -0.00109375      -0.13457411
Sr       2.75856694       1.57636594      15.29440982       0.17542483      -0.09360590       0.04836116
Ti       1.97047269       1.97057450      11.77945331      -0.14880774       0.09255251      -0.01541942
Ti       0.78791578       3.54679074      16.73611999       0.00554407      -0.01062097       0.08523387
O        0.00000902       1.97050521      11.90397603      -0.17049345      -0.06772569       0.18071359
O        2.75885292       3.54685853      16.88746548      -0.00391502       0.00574796      -0.05713608
O        1.97049401       3.94093312      11.94629966       0.12444242       0.12191040      -0.17054744
O        0.78828644       1.57638437      16.87739741      -0.01298073       0.00265415      -0.02579973
O        1.97043419       1.97038596       9.97041000      -0.02181992       0.01367570      -0.03676832
O        0.78825659       3.54680681      14.92195214       0.05181030      -0.06349416       0.12593623
10
Lattice="3.940949890606662 0.0 0.0 0.0 3.940949890606662 0.0 0.0 0.0 26.940967945119528" Properties=species:S:1:pos:R:3:forces:R:3 tau=tau74 tau_p=7 tau_q=4 stage=B constraint=xy_fixed_z_free force_label=raw_dft energy=-15499.259074237656 free_energy=-15499.259074237656 stress="0.008917146758817076 -3.856261983837697e-05 -0.0017022642185797834 -3.856261983837697e-05 0.01061665650455126 0.0012239041010608691 -0.0017022642185797834 0.0012239041010608691 -0.00160769398421424" pbc="T T T"
Sr       0.00003612       0.00009431      10.33567197       0.00092945      -0.00101481      -0.22558551
Sr       2.75856694       1.57636594      15.31959088       0.15919782      -0.08551643       0.07528087
Ti       1.97047269       1.97057450      11.74485011      -0.13649575       0.08553752       0.03819759
Ti       0.78791578       3.54679074      16.77093020       0.00534995      -0.01029367       0.04222060
O        0.00000902       1.97050521      11.87062011      -0.15518536      -0.06100019       0.20209179
O        2.75885292       3.54685853      16.91851267      -0.00354118       0.00505222      -0.04693035
O        1.97049401       3.94093312      11.91410785       0.11163344       0.11009798      -0.14131889
O        0.78828644       1.57638437      16.90783731      -0.01136093       0.00230679      -0.01240043
O        1.97043419       1.97038596       9.93739666      -0.01972499       0.01229527      -0.00755030
O        0.78825659       3.54680681      14.95580221       0.04919754      -0.05746518       0.07599435
10
Lattice="3.940949890606662 0.0 0.0 0.0 3.940949890606662 0.0 0.0 0.0 26.940967945119528" Properties=species:S:1:pos:R:3:forces:R:3 tau=tau74 tau_p=7 tau_q=4 stage=B constraint=xy_fixed_z_free force_label=raw_dft energy=-15499.267972904407 free_energy=-15499.267972904407 stress="0.008981417791881037 -2.2953940379986292e-05 -0.0015709676796062618 -2.2953940379986292e-05 0.010255820561777877 0.0010907712468569487 -0.0015709676796062618 0.0010907712468569487 -0.0014222261459439507" pbc="T T T"
Sr       0.00003612       0.00009431      10.29841726       0.00071734      -0.00086492      -0.29668705
Sr       2.75856694       1.57636594      15.35681262       0.14033647      -0.07466741       0.10707693
Ti       1.97047269       1.97057450      11.69745098      -0.12098480       0.07535158       0.09233500
Ti       0.78791578       3.54679074      16.82139113       0.00624032      -0.00876335      -0.03923581
O        0.00000902       1.97050521      11.83299745      -0.13757047      -0.05332931       0.17559246
O        2.75885292       3.54685853      16.95968131      -0.00316683       0.00436908      -0.00021366
O        1.97049401       3.94093312      11.86189254       0.09389077       0.09408669      -0.08229176
O        0.78828644       1.57638437      16.94967438      -0.00967043       0.00188436       0.03249437
O        1.97043419       1.97038596       9.89064454      -0.01665201       0.01066211       0.03234705
O        0.78825659       3.54680681      15.00635775       0.04686015      -0.04872858      -0.02141780
10
Lattice="3.940949890606662 0.0 0.0 0.0 3.940949890606662 0.0 0.0 0.0 26.940967945119528" Properties=species:S:1:pos:R:3:forces:R:3 tau=tau74 tau_p=7 tau_q=4 stage=B constraint=xy_fixed_z_free force_label=raw_dft energy=-15499.273994919713 free_energy=-15499.273994919713 stress="0.009300936641970445 -1.5608679458390678e-05 -0.001502105858466303 -1.5608679458390678e-05 0.010107079028115565 0.0010017099581826018 -0.001502105858466303 0.0010017099581826018 -0.0012734846122816395" pbc="T T T"
Sr       0.00003612       0.00009431      10.26570925       0.00035353      -0.00069291      -0.27556287
Sr       2.75856694       1.57636594      15.38458139       0.12992633      -0.06760999       0.11061169
Ti       1.97047269       1.97057450      11.66769771      -0.11064023       0.06956428       0.10101581
Ti       0.78791578       3.54679074      16.85510203       0.00622773      -0.00799356      -0.07758921
O        0.00000902       1.97050521      11.81468149      -0.12802397      -0.04928085       0.11145321
O        2.75885292       3.54685853      16.98622387      -0.00292412       0.00393816       0.04381314
O        1.97049401       3.94093312      11.82242825       0.08233135       0.08363824      -0.03699895
O        0.78828644       1.57638437      16.97790930      -0.00876412       0.00164602       0.06978385
O        1.97043419       1.97038596       9.85965245      -0.01459538       0.00970617       0.04736589
O        0.78825659       3.54680681      15.04133423       0.04610836      -0.04291505      -0.09389257
10
Lattice="3.940949890606662 0.0 0.0 0.0 3.940949890606662 0.0 0.0 0.0 26.940967945119528" Properties=species:S:1:pos:R:3:forces:R:3 tau=tau74 tau_p=7 tau_q=4 stage=B constraint=xy_fixed_z_free force_label=raw_dft energy=-15499.279500054785 free_energy=-15499.279500054785 stress="0.009873866993854903 -9.181576151994517e-06 -0.0014277350916351472 -9.181576151994517e-06 0.010187876898253116 0.0009154031423538533 -0.0014277350916351472 0.0009154031423538533 -0.0009429478708098369" pbc="T T T"
Sr       0.00003612       0.00009431      10.22229853      -0.00000591      -0.00033913      -0.19269467
Sr       2.75856694       1.57636594      15.41869347       0.11926679      -0.06035125       0.09703292
Ti       1.97047269       1.97057450      11.63660047      -0.10060752       0.06421639       0.09501049
Ti       0.78791578       3.54679074      16.89112403       0.00598270      -0.00784984      -0.10190876
O        0.00000902       1.97050521      11.79410412      -0.11795630      -0.04511103       0.03257048
O        2.75885292       3.54685853      17.01745951      -0.00271971       0.00335709       0.07549016
O        1.97049401       3.94093312      11.77953864       0.07133603       0.07344870      -0.00393122
O        0.78828644       1.57638437      17.01128828      -0.00775316       0.00151464       0.09349662
O        1.97043419       1.97038596       9.82594088      -0.01266345       0.00886362       0.04468757
O        0.78825659       3.54680681      15.07827204       0.04512055      -0.03774945      -0.13975360
10
Lattice="3.940949890606662 0.0 0.0 0.0 3.940949890606662 0.0 0.0 0.0 26.940967945119528" Properties=species:S:1:pos:R:3:forces:R:3 tau=tau74 tau_p=7 tau_q=4 stage=B constraint=xy_fixed_z_free force_label=raw_dft energy=-15499.283344751211 free_energy=-15499.283344751211 stress="0.010485359965577739 -5.5089456911967096e-06 -0.0013763182651839781 -5.5089456911967096e-06 0.010478014704656143 0.0008603136854418862 -0.0013763182651839781 0.0008603136854418862 -0.0004572424923693269" pbc="T T T"
Sr       0.00003612       0.00009431      10.18358897      -0.00043220      -0.00001491      -0.07615582
Sr       2.75856694       1.57636594      15.44734498       0.11168692      -0.05556488       0.06267270
Ti       1.97047269       1.97057450      11.61629211      -0.09465516       0.05985322       0.04827812
Ti       0.78791578       3.54679074      16.91509159       0.00634985      -0.00659719      -0.08136256
O        0.00000902       1.97050521      11.77798017      -0.11081146      -0.04221083      -0.02192354
O        2.75885292       3.54685853      17.04296802      -0.00259939       0.00300742       0.06931231
O        1.97049401       3.94093312      11.74923724       0.06450229       0.06689728       0.00888239
O        0.78828644       1.57638437      17.03866586      -0.00703968       0.00132078       0.08136076
O        1.97043419       1.97038596       9.80208325      -0.01150774       0.00831083       0.03142505
O        0.78825659       3.54680681      15.10206777       0.04450657      -0.03500223      -0.12248941
10
Lattice="3.940949890606662 0.0 0.0 0.0 3.940949890606662 0.0 0.0 0.0 26.940967945119528" Properties=species:S:1:pos:R:3:forces:R:3 tau=tau74 tau_p=7 tau_q=4 stage=B constraint=xy_fixed_z_free force_label=raw_dft energy=-15499.285121654575 free_energy=-15499.285121654575 stress="0.01085170485404232 -5.5089456911967096e-06 -0.001341428275806399 -5.5089456911967096e-06 0.010789270136208758 0.0008327689569859026 -0.001341428275806399 0.0008327689569859026 5.5089456911967096e-06" pbc="T T T"
Sr       0.00003612       0.00009431      10.15861639      -0.00068623       0.00022986       0.00717466
Sr       2.75856694       1.57636594      15.46632045       0.10668998      -0.05303003       0.02549712
Ti       1.97047269       1.97057450      11.60501989      -0.09157678       0.05746955       0.00352498
Ti       0.78791578       3.54679074      16.92714645       0.00655760      -0.00602409      -0.04151329
O        0.00000902       1.97050521      11.76445895      -0.10611123      -0.04034344      -0.03282887
O        2.75885292       3.54685853      17.06100030      -0.00249988       0.00284390       0.03367965
O        1.97049401       3.94093312      11.73384571       0.06128713       0.06371836       0.00725797
O        0.78828644       1.57638437      17.05765691      -0.00658177       0.00124544       0.04240623
O        1.97043419       1.97038596       9.78860075      -0.01095187       0.00792285       0.01077009
O        0.78825659       3.54680681      15.11265416       0.04387305      -0.03403215      -0.05596854
10
Lattice="3.940949890606662 0.0 0.0 0.0 3.940949890606662 0.0 0.0 0.0 26.940967945119528" Properties=species:S:1:pos:R:3:forces:R:3 tau=tau74 tau_p=7 tau_q=4 stage=B constraint=xy_fixed_z_free force_label=raw_dft energy=-15499.285517716267 free_energy=-15499.285517716267 stress="0.010882922212959101 -5.5089456911967096e-06 -0.00132306512350241 -5.5089456911967096e-06 0.010916894044721482 0.0008254236960643071 -0.00132306512350241 0.0008254236960643071 0.00018363152303989033" pbc="T T T"
Sr       0.00003612       0.00009431      10.15131505      -0.00072377       0.00027048       0.02256066
Sr       2.75856694       1.57636594      15.47318733       0.10446701      -0.05225741       0.01188107
Ti       1.97047269       1.97057450      11.60049035      -0.09060310       0.05657353      -0.00839671
Ti       0.78791578       3.54679074      16.93048578       0.00657585      -0.00588063      -0.01214589
O        0.00000902       1.97050521      11.75624549      -0.10394456      -0.03950526      -0.01875620
O        2.75885292       3.54685853      17.06881002      -0.00244460       0.00279222       0.00414976
O        1.97049401       3.94093312      11.73039780       0.06061684       0.06296632       0.00187331
O        0.78828644       1.57638437      17.06555780      -0.00637428       0.00122924       0.01262592
O        1.97043419       1.97038596       9.78391493      -0.01085211       0.00778273       0.00016018
O        0.78825659       3.54680681      15.11491542       0.04328246      -0.03397096      -0.01395209
