10
Lattice="3.940949890606662 0.0 0.0 0.0 3.940949890606662 0.0 0.0 0.0 26.940967945119528" Properties=species:S:1:pos:R:3:forces:R:3 tau=tau36 tau_p=3 tau_q=6 stage=A constraint=rigid_scf force_label=raw_dft energy=-15497.079463070677 free_energy=-15497.079463070677 stress="0.011586230946201882 -0.001079753355474555 0.00614614707614513 -0.001079753355474555 0.017913255072541302 -0.006835683445159917 0.00614614707614513 -0.006835683445159917 -0.021779616790146193" pbc="T T T"
Sr       0.00003626       0.00009419      10.75260867      -0.00763849      -0.00541526       0.60265681
Sr       1.18218684       2.36455575      14.64522241      -1.51679300       0.90530162       5.07636886
Ti       1.97047258       1.97057465      12.38212169       1.54670213      -0.78478065      -5.05443992
Ti       3.15248562       0.39403075      16.28444791       0.01220554       0.03970966      -0.58157325
O        0.00000906       1.97050529      12.45001441       0.43802625       0.35429287      -0.58165553
O        1.18247295       0.39409854      16.39256827       0.01839316      -0.03944844      -0.11212324
O        1.97049386       3.94093294      12.44909065      -0.92327980      -0.68895743      -1.03026006
O        3.15285647       2.36457427      16.37955485       0.12854282      -0.00893330      -0.13722235
O        1.97043435       1.97038588      10.49176941       0.09685834      -0.09943844       0.43067289
O        3.15282651       0.39404691      14.44792112       0.20698306       0.32766961       1.38757604
