10
Lattice="3.940949890606662 0.0 0.0 0.0 3.940949890606662 0.0 0.0 0.0 26.940967945119528" Properties=species:S:1:pos:R:3:forces:R:3 tau=tau46 tau_p=4 tau_q=6 stage=A constraint=rigid_scf force_label=raw_dft energy=-15496.624216210434 free_energy=-15496.624216210434 stress="0.016499292345134146 -0.0005977206074948431 0.0053785673098383875 -0.0005977206074948431 0.016131111141439166 -0.005377649152223189 0.0053785673098383875 -0.005377649152223189 -0.02439820230869503" pbc="T T T"
Sr       0.00003626       0.00009419      10.75260867      -0.00145704       0.00122822       0.67881212
Sr       1.57628183       2.36455575      14.64522241      -1.10631047       1.10425410       6.08847487
Ti       1.97047258       1.97057465      12.38212169       1.00818046      -1.00753794      -6.65785107
Ti       3.54658061       0.39403075      16.28444791       0.01222405      -0.01194920      -0.90157661
O        0.00000906       1.97050529      12.45001441       0.42690520       0.49115089      -0.41806497
O        1.57656794       0.39409854      16.39256827       0.00125753      -0.06093874      -0.12844306
O        1.97049386       3.94093294      12.44909065      -0.49097400      -0.42591224      -0.41000662
O        3.54695145       2.36457427      16.37955485       0.06372196      -0.00154703      -0.09038867
O        1.97043435       1.97038588      10.49176941       0.05936240      -0.05874868       0.44010447
O        3.54692150       0.39404691      14.44792112       0.02708940      -0.02999912       1.39893954
