10
Lattice="3.940949890606662 0.0 0.0 0.0 3.940949890606662 0.0 0.0 0.0 26.940967945119528" Properties=species:S:1:pos:R:3:forces:R:3 tau=tau40 tau_p=4 tau_q=0 stage=A constraint=rigid_scf force_label=raw_dft energy=-15497.561379264016 free_energy=-15497.561379264016 stress="0.02008010704441201 -0.0 0.013213206240335309 -0.0 0.004901125349934673 9.181576151994517e-07 0.013213206240335309 9.181576151994517e-07 -0.03246788958868301" pbc="T T T"
Sr       0.00003626       0.00009419      10.75260867       0.00463287       0.00004139       0.28245599
Sr       1.57628183       3.94093570      14.64522241      -0.65744419       0.00013550       4.61759355
Ti       1.97047258       1.97057465      12.38212169       0.33998494      -0.00064329      -2.30486080
Ti       3.54658061       1.97041071      16.28444791      -0.14981792      -0.00003985       0.31349949
O        0.00000906       1.97050529      12.45001441       1.55795970       0.00004551      -3.64431530
O        1.57656794       1.97047849      16.39256827       0.01768868       0.00001131      -0.29456409
O        1.97049386       3.94093294      12.44909065       0.21863401       0.00021674      -1.49195949
O        3.54695145       0.00000434      16.37955485      -0.04602866       0.00000771      -0.06448507
O        1.97043435       1.97038588      10.49176941       0.20220492       0.00022214       0.27956247
O        3.54692150       1.97042687      14.44792112      -1.48781435       0.00000257       2.30707349
