10
Lattice="3.940949890606662 0.0 0.0 0.0 3.940949890606662 0.0 0.0 0.0 26.940967945119528" Properties=species:S:1:pos:R:3:forces:R:3 tau=tau10 tau_p=1 tau_q=0 stage=A constraint=rigid_scf force_label=raw_dft energy=-15500.494033642157 free_energy=-15500.494033642157 stress="0.009555266301380694 0.0 0.0070496141695013895 0.0 0.008764732594693965 0.0 0.0070496141695013895 0.0 -0.0008346052722163016" pbc="T T T"
Sr       0.00003626       0.00009419      10.75260867      -0.00274825       0.00001928       0.05704969
Sr       0.39399686       3.94093570      14.64522241      -0.30366811      -0.00001491       0.34457025
Ti       1.97047258       1.97057465      12.38212169       0.24018989      -0.00016044      -0.04284332
Ti       2.36429564       1.97041071      16.28444791      -0.05156425      -0.00009539      -0.00038849
O        0.00000906       1.97050529      12.45001441       0.98608774      -0.00012187      -0.29630293
O        0.39428297       1.97047849      16.39256827      -0.00957916       0.00001337      -0.02928487
O        1.97049386       3.94093294      12.44909065      -0.22509263       0.00001851      -0.03837371
O        2.36466649       0.00000434      16.37955485      -0.02839938       0.00008665       0.01123881
O        1.97043435       1.97038588      10.49176941       0.17950799       0.00013987       0.04067177
O        2.36463654       1.97042687      14.44792112      -0.78473385       0.00011493      -0.04633719
