10
Lattice="3.940949890606662 0.0 0.0 0.0 3.940949890606662 0.0 0.0 0.0 26.940967945119528" Properties=species:S:1:pos:R:3:forces:R:3 tau=tau00 tau_p=0 tau_q=0 stage=B constraint=xy_fixed_z_free force_label=raw_dft energy=-15500.723239074105 free_energy=-15500.723239074105 stress="0.009251356130749675 -0.0 -0.0 -0.0 0.008968563585268244 0.0 -0.0 0.0 0.00022127598526306785" pbc="T T T"
Sr       0.00003626       0.00009419      10.75260867      -0.00007559       0.00002134       0.01668235
Sr       3.94085176       3.94093570      14.64522241      -0.00009667      -0.00003188      -0.00998565
Ti       1.97047258       1.97057465      12.38212169       0.00000643      -0.00008510      -0.00663499
Ti       1.97020066       1.97041071      16.28444791      -0.00087443      -0.00010027       0.00590788
O        0.00000906       1.97050529      12.45001441      -0.00002365      -0.00011159      -0.00152981
O        0.00018798       1.97047849      16.39256827       0.00061218       0.00001594      -0.02182558
O        1.97049386       3.94093294      12.44909065       0.00001183      -0.00000900      -0.00010567
O        1.97057150       0.00000434      16.37955485       0.00043040       0.00007868       0.01587939
O        1.97043435       1.97038588      10.49176941       0.00011287       0.00011261      -0.00637325
O        1.97054155       1.97042687      14.44792112      -0.00010336       0.00010953       0.00798533
