10
Lattice="3.940949890606662 0.0 0.0 0.0 3.940949890606662 0.0 0.0 0.0 26.940967945119528" Properties=species:S:1:pos:R:3:forces:R:3 tau=tau17 tau_p=1 tau_q=7 stage=B constraint=xy_fixed_z_free force_label=raw_dft energy=-15498.577985680678 free_energy=-15498.577985680678 stress="0.007505938504255517 -0.001264303036129645 0.003252114273036458 -0.001264303036129645 0.014771319713328778 -0.016203645593039922 0.003252114273036458 -0.016203645593039922 -0.016850028554140337" pbc="T T T"
Sr       0.00003626       0.00009419      10.75260867      -0.00341648      -0.00589425       0.28832042
Sr       0.39399686       2.75865074      14.64522241      -0.53044455       0.90663602       3.06763152
Ti       1.97047258       1.97057465      12.38212169       0.75423568      -0.61997628      -1.57252449
Ti       2.36429564       0.78812574      16.28444791      -0.01654351       0.16972443       0.03831021
O        0.00000906       1.97050529      12.45001441       0.31586439       0.04355603      -0.78196169
O        0.39428297       0.78819352      16.39256827      -0.00261944       0.04875789      -0.06892536
O        1.97049386       3.94093294      12.44909065      -0.60623681      -1.94039124      -2.07065387
O        2.36466649       2.75866926      16.37955485       0.04959889      -0.01105034      -0.14809091
O        1.97043435       1.97038588      10.49176941       0.08902805      -0.28375594       0.25425948
O        2.36463654       0.78814190      14.44792112      -0.04946597       1.69239343       0.99363444
10
Lattice="3.940949890606662 0.0 0.0 0.0 3.940949890606662 0.0 0.0 0.0 26.940967945119528" Properties=species:S:1:pos:R:3:forces:R:3 tau=tau17 tau_p=1 tau_q=7 stage=B constraint=xy_fixed_z_free force_label=raw_dft energy=-15498.891359596462 free_energy=-15498.891359596462 stress="0.006121356820534744 -0.0010714899369377601 0.0031804979790509007 -0.0010714899369377601 0.012354728870123823 -0.0138990699788893 0.0031804979790509007 -0.0138990699788893 -0.01710068558308979" pbc="T T T"
Sr       0.00003612       0.00009431      10.75854284      -0.00368516      -0.00504450       0.26773900
Sr       0.39399699       2.75865092      14.70835983      -0.47539080       0.67566329       2.18182889
Ti       1.97047269       1.97057450      12.34975671       0.62360899      -0.56262268      -0.96969516
Ti       2.36429575       0.78812580      16.28523641      -0.01570301       0.15168172       0.18619106
O        0.00000902       1.97050521      12.43392035       0.35402265       0.15564044      -0.43433594
O        0.39428297       0.78819359      16.39114973      -0.00172341       0.04325367       0.06249041
O        1.97049401       3.94093312      12.40647302      -0.53098628      -1.64333473      -1.64572534
O        2.36466641       2.75866935      16.37650684       0.04615593      -0.01441335       0.00280636
O        1.97043419       1.97038596      10.49700248       0.08589721      -0.26204452      -0.22667051
O        2.36463656       0.78814187      14.46837175      -0.08219637       1.46122040       0.57537149
10
Lattice="3.940949890606662 0.0 0.0 0.0 3.940949890606662 0.0 0.0 0.0 26.940967945119528" Properties=species:S:1:pos:R:3:forces:R:3 tau=tau17 tau_p=1 tau_q=7 stage=B constraint=xy_fixed_z_free force_label=raw_dft energy=-15499.125719272686 free_energy=-15499.125719272686 stress="0.004363084987427795 -0.0009190757728146512 0.00311439063075654 -0.0009190757728146512 0.009479059219319139 -0.011765271681165774 0.00311439063075654 -0.011765271681165774 -0.016865637233598726" pbc="T T T"
Sr       0.00003612       0.00009431      10.76691996      -0.00466090      -0.00288838       0.12281774
Sr       0.39399699       2.75865092      14.77781067      -0.42248007       0.48860833       1.28900457
Ti       1.97047269       1.97057450      12.31854475       0.51297956      -0.51555941      -0.56839866
Ti       2.36429575       0.78812580      16.29079438      -0.01543048       0.13315692       0.20192647
O        0.00000902       1.97050521      12.41981213       0.37834503       0.23843614      -0.13979062
O        0.39428297       0.78819359      16.39288017      -0.00082455       0.03773942       0.23602881
O        1.97049401       3.94093312      12.35448850      -0.45241388      -1.36504752      -1.15502002
O        2.36466641       2.75866935      16.37634528       0.04197377      -0.01611953       0.20044217
O        1.97043419       1.97038596      10.49073270       0.07982530      -0.23831272      -0.51218046
O        2.36463656       0.78814187      14.48699141      -0.11731378       1.23998700       0.32516973
10
Lattice="3.940949890606662 0.0 0.0 0.0 3.940949890606662 0.0 0.0 0.0 26.940967945119528" Properties=species:S:1:pos:R:3:forces:R:3 tau=tau17 tau_p=1 tau_q=7 stage=B constraint=xy_fixed_z_free force_label=raw_dft energy=-15499.312224873192 free_energy=-15499.312224873192 stress="0.0012918477645856286 -0.000760234505385146 0.002991357510319814 -0.000760234505385146 0.00480563695795393 -0.009077824341476979 0.002991357510319814 -0.009077824341476979 -0.01626057136518229" pbc="T T T"
Sr       0.00003612       0.00009431      10.77762076      -0.00644190       0.00143390      -0.23702152
Sr       0.39399699       2.75865092      14.88198693      -0.35150117       0.29325746       0.09628524
Ti       1.97047269       1.97057450      12.27149563       0.38610590      -0.45945459      -0.25148988
Ti       2.36429575       0.78812580      16.30301845      -0.01583311       0.10682548       0.21924208
O        0.00000902       1.97050521      12.40382847       0.38849934       0.30642305       0.14055707
O        0.39428297       0.78819359      16.40459018       0.00085361       0.03052028       0.48888884
O        1.97049401       3.94093312      12.26835763      -0.34262469      -1.01412125      -0.40370613
O        2.36466641       2.75866935      16.38521193       0.03541078      -0.01701633       0.49225698
O        1.97043419       1.97038596      10.46459697       0.06701966      -0.20161280      -0.63020952
O        2.36463656       0.78814187      14.51461302      -0.16148816       0.95374480       0.08519659
10
Lattice="3.940949890606662 0.0 0.0 0.0 3.940949890606662 0.0 0.0 0.0 26.940967945119528" Properties=species:S:1:pos:R:3:forces:R:3 tau=tau17 tau_p=1 tau_q=7 stage=B constraint=xy_fixed_z_free force_label=raw_dft energy=-15499.359248729592 free_energy=-15499.359248729592 stress="0.0004682603837517204 -0.0007078995213187773 0.002936268053407847 -0.0007078995213187773 0.0032631321644188515 -0.008048569654838394 0.002936268053407847 -0.008048569654838394 -0.015074311726344597" pbc="T T T"
Sr       0.00003612       0.00009431      10.77500436      -0.00705228       0.00334089      -0.42310562
Sr       0.39399699       2.75865092      14.92516829      -0.32251455       0.23171759      -0.29611189
Ti       1.97047269       1.97057450      12.24558934       0.34083572      -0.43925601      -0.21076284
Ti       2.36429575       0.78812580      16.31308363      -0.01635427       0.09709771       0.26538927
O        0.00000902       1.97050521      12.40063496       0.38739711       0.32090273       0.15652516
O        0.39428297       0.78819359      16.42168325       0.00182240       0.02766918       0.52793361
O        1.97049401       3.94093312      12.22490830      -0.29615535      -0.87839863      -0.09211697
O        2.36466641       2.75866935      16.40130982       0.03224575      -0.01679393       0.54686644
O        1.97043419       1.97038596      10.43972129       0.05950793      -0.18350632      -0.50494049
O        2.36463656       0.78814187      14.52821673      -0.17973245       0.83722652       0.03032333
10
Lattice="3.940949890606662 0.0 0.0 0.0 3.940949890606662 0.0 0.0 0.0 26.940967945119528" Properties=species:S:1:pos:R:3:forces:R:3 tau=tau17 tau_p=1 tau_q=7 stage=B constraint=xy_fixed_z_free force_label=raw_dft energy=-15499.412034188355 free_energy=-15499.412034188355 stress="0.0008997944628954626 -0.0006583190100980068 0.0028793422812654805 -0.0006583190100980068 0.0028141530905863195 -0.0070716499522661775 0.0028793422812654805 -0.0070716499522661775 -0.012537442235548514" pbc="T T T"
Sr       0.00003612       0.00009431      10.75844754      -0.00725874       0.00488407      -0.56205781
Sr       0.39399699       2.75865092      14.96380186      -0.29363515       0.18050764      -0.51972922
Ti       1.97047269       1.97057450      12.20954664       0.29852590      -0.41998739      -0.13276740
Ti       2.36429575       0.78812580      16.33213154      -0.01761386       0.09011177       0.30808835
O        0.00000902       1.97050521      12.40060367       0.38444831       0.32832833       0.04353212
O        0.39428297       0.78819359      16.45557686       0.00304676       0.02472424       0.45664926
O        1.97049401       3.94093312      12.17555198      -0.24937849      -0.74891607       0.15552166
O        2.36466641       2.75866935      16.43471908       0.02865906      -0.01586371       0.48713303
O        1.97043419       1.97038596      10.40020960       0.05040571      -0.16249758      -0.29647622
O        2.36463656       0.78814187      14.54473121      -0.19719924       0.71870869       0.06010596
10
Lattice="3.940949890606662 0.0 0.0 0.0 3.940949890606662 0.0 0.0 0.0 26.940967945119528" Properties=species:S:1:pos:R:3:forces:R:3 tau=tau17 tau_p=1 tau_q=7 stage=B constraint=xy_fixed_z_free force_label=raw_dft energy=-15499.471411060633 free_energy=-15499.471411060633 stress="0.0031575440386709145 -0.0006023113955708403 0.0028279254548143114 -0.0006023113955708403 0.003969195370507229 -0.006203072848287495 0.0028279254548143114 -0.006203072848287495 -0.008469085842599743" pbc="T T T"
Sr       0.00003612       0.00009431      10.72134966      -0.00681188       0.00572405      -0.59291207
Sr       0.39399699       2.75865092      14.99263379      -0.26798840       0.14199894      -0.50563392
Ti       1.97047269       1.97057450      12.16382649       0.26119811      -0.40141348      -0.00783364
Ti       2.36429575       0.78812580      16.36383640      -0.01931798       0.08483432       0.34158211
O        0.00000902       1.97050521      12.40093867       0.37809769       0.32830031      -0.19208120
O        0.39428297       0.78819359      16.50866215       0.00435828       0.02192225       0.25548358
O        1.97049401       3.94093312      12.12339646      -0.20562732      -0.63270941       0.28608716
O        2.36466641       2.75866935      16.48821345       0.02512302      -0.01426962       0.28888761
O        1.97043419       1.97038596      10.34591764       0.04082603      -0.13978522      -0.03787004
O        2.36463656       0.78814187      14.56654525      -0.20985755       0.60539761       0.16429015
10
Lattice="3.940949890606662 0.0 0.0 0.0 3.940949890606662 0.0 0.0 0.0 26.940967945119528" Properties=species:S:1:pos:R:3:forces:R:3 tau=tau17 tau_p=1 tau_q=7 stage=B constraint=xy_fixed_z_free force_label=raw_dft energy=-15499.517308637856 free_energy=-15499.517308637856 stress="0.006644706661198432 -0.0005426311505828759 0.0028003807263583275 -0.0005426311505828759 0.006476683817616932 -0.005689822741391002 0.0028003807263583275 -0.005689822741391002 -0.0041656811001599126" pbc="T T T"
Sr       0.00003612       0.00009431      10.67018176      -0.00577161       0.00520186      -0.46349071
Sr       0.39399699       2.75865092      15.00083609      -0.25401908       0.12522789      -0.26932460
Ti       1.97047269       1.97057450      12.12471522       0.24062055      -0.38932055       0.08297670
Ti       2.36429575       0.78812580      16.40243613      -0.02114681       0.08315076       0.32033734
O        0.00000902       1.97050521      12.39566756       0.36796086       0.32074795      -0.41805238
O        0.39428297       0.78819359      16.56378567       0.00508204       0.01974299       0.02254112
O        1.97049401       3.94093312      12.08682643      -0.17718757      -0.55873543       0.25253709
O        2.36466641       2.75866935      16.54476814       0.02266505      -0.01267142       0.04876483
O        1.97043419       1.97038596      10.29542465       0.03405375      -0.12252824       0.15805265
O        2.36463656       0.78814187      14.59067832      -0.21225716       0.52918420       0.26565769
10
Lattice="3.940949890606662 0.0 0.0 0.0 3.940949890606662 0.0 0.0 0.0 26.940967945119528" Properties=species:S:1:pos:R:3:forces:R:3 tau=tau17 tau_p=1 tau_q=7 stage=B constraint=xy_fixed_z_free force_label=raw_dft energy=-15499.543586671256 free_energy=-15499.543586671256 stress="0.00939367056110559 -0.0004893780089013077 0.0028022170415887265 -0.0004893780089013077 0.008829003627757927 -0.005537408577267893 0.0028022170415887265 -0.005537408577267893 -0.0014727248147799205" pbc="T T T"
Sr       0.00003612       0.00009431      10.62616457      -0.00465138       0.00382143      -0.25862598
Sr       0.39399699       2.75865092      14.99443529      -0.25171717       0.12539373      -0.01557240
Ti       1.97047269       1.97057450      12.10545202       0.23704491      -0.38676745       0.09252012
Ti       2.36429575       0.78812580      16.43454316      -0.02279617       0.08548635       0.22183478
O        0.00000902       1.97050521      12.38196396       0.35608185       0.31022494      -0.49339110
O        0.39428297       0.78819359      16.59818608       0.00521754       0.01812216      -0.09802459
O        1.97049401       3.94093312      12.07406113      -0.16573974      -0.52868694       0.15069930
O        2.36466641       2.75866935      16.58085964       0.02149365      -0.01147278      -0.08260595
O        1.97043419       1.97038596      10.26817646       0.03151144      -0.11376514       0.19979554
O        2.36463656       0.78814187      14.61147766      -0.20644493       0.49764396       0.28337054
10
Lattice="3.940949890606662 0.0 0.0 0.0 3.940949890606662 0.0 0.0 0.0 26.940967945119528" Properties=species:S:1:pos:R:3:forces:R:3 tau=tau17 tau_p=1 tau_q=7 stage=B constraint=xy_fixed_z_free force_label=raw_dft energy=-15499.561531626514 free_energy=-15499.561531626514 stress="0.011095016622070174 -0.00043428855198934064 0.002804971514434325 -0.00043428855198934064 0.010605638613168867 -0.005500682272659915 0.002804971514434325 -0.005500682272659915 -7.069813637035779e-05" pbc="T T T"
Sr       0.00003612       0.00009431      10.58949424      -0.00340954       0.00239241      -0.04435230
Sr       0.39399699       2.75865092      14.98673800      -0.25315313       0.13054545       0.17917529
Ti       1.97047269       1.97057450      12.09701068       0.23884597      -0.38655071       0.02885909
Ti       2.36429575       0.78812580      16.46199389      -0.02383361       0.08743653       0.09287339
O        0.00000902       1.97050521      12.35915454       0.34120467       0.29818497      -0.44258096
O        0.39428297       0.78819359      16.61821303       0.00505967       0.01653168      -0.12184895
O        1.97049401       3.94093312      12.07217728      -0.16093717      -0.51389539       0.06455243
O        2.36466641       2.75866935      16.60253314       0.02084008      -0.01027798      -0.11627685
O        1.97043419       1.97038596      10.25552703       0.03109724      -0.10815731       0.13944892
O        2.36463656       0.78814187      14.63247813      -0.19571417       0.48379008       0.22014994
10
Lattice="3.940949890606662 0.0 0.0 0.0 3.940949890606662 0.0 0.0 0.0 26.940967945119528" Properties=species:S:1:pos:R:3:forces:R:3 tau=tau17 tau_p=1 tau_q=7 stage=B constraint=xy_fixed_z_free force_label=raw_dft energy=-15499.573468988503 free_energy=-15499.573468988503 stress="0.011607348571351468 -0.00038287172553817133 0.0027755904707479425 -0.00038287172553817133 0.011433816782078773 -0.005415293614446366 0.0027755904707479425 -0.005415293614446366 0.0002736109693294366" pbc="T T T"
Sr       0.00003612       0.00009431      10.56430799      -0.00252251       0.00158020       0.10497069
Sr       0.39399699       2.75865092      14.98825809      -0.25153411       0.13166774       0.24989092
Ti       1.97047269       1.97057450      12.09145053       0.23759539      -0.38188441      -0.04841824
Ti       2.36429575       0.78812580      16.48302375      -0.02357856       0.08717685      -0.01318899
O        0.00000902       1.97050521      12.33127094       0.32438812       0.28651551      -0.32122669
O        0.39428297       0.78819359      16.62834467       0.00471026       0.01477150      -0.07894752
O        1.97049401       3.94093312      12.07166779      -0.15731218      -0.49925835       0.03710668
O        2.36466641       2.75866935      16.61387691       0.02009369      -0.00936781      -0.07890998
O        1.97043419       1.97038596      10.25035378       0.03132992      -0.10316989       0.02932806
O        2.36463656       0.78814187      14.65276552      -0.18317002       0.47196841       0.11939535
10
Lattice="3.940949890606662 0.0 0.0 0.0 3.940949890606662 0.0 0.0 0.0 26.940967945119528" Properties=species:S:1:pos:R:3:forces:R:3 tau=tau17 tau_p=1 tau_q=7 stage=B constraint=xy_fixed_z_free force_label=raw_dft energy=-15499.582692151009 free_energy=-15499.582692151009 stress="0.011293338666953256 -0.0003351275295477999 0.0026947926006103905 -0.0003351275295477999 0.01146870677145635 -0.005205953678180892 0.0026947926006103905 -0.005205953678180892 2.8462886071183002e-05" pbc="T T T"
Sr       0.00003612       0.00009431      10.54717223      -0.00195944       0.00134931       0.17618073
Sr       0.39399699       2.75865092      15.00215104      -0.24315360       0.12609050       0.21050187
Ti       1.97047269       1.97057450      12.08204559       0.22911460      -0.36952769      -0.10355067
Ti       2.36429575       0.78812580      16.50053464      -0.02263214       0.08460112      -0.07237990
O        0.00000902       1.97050521      12.29955693       0.30503542       0.27403023      -0.17931491
O        0.39428297       0.78819359      16.63604561       0.00435879       0.01279767      -0.00960307
O        1.97049401       3.94093312      12.06727875      -0.15156293      -0.47688487       0.05731220
O        2.36466641       2.75866935      16.62241512       0.01903439      -0.00877518      -0.01072227
O        1.97043419       1.97038596      10.24443196       0.03122553      -0.09680486      -0.07949157
O        2.36463656       0.78814187      14.67368808      -0.16946064       0.45312428       0.01106731
10
Lattice="3.940949890606662 0.0 0.0 0.0 3.940949890606662 0.0 0.0 0.0 26.940967945119528" Properties=species:S:1:pos:R:3:forces:R:3 tau=tau17 tau_p=1 tau_q=7 stage=B constraint=xy_fixed_z_free force_label=raw_dft energy=-15499.589303700945 free_energy=-15499.589303700945 stress="0.010556976259563295 -0.0003002375401702207 0.0025726776377888636 -0.0003002375401702207 0.010974737974479046 -0.0049093887684714685 0.0025726776377888636 -0.0049093887684714685 -0.00037552646461657573" pbc="T T T"
Sr       0.00003612       0.00009431      10.53744954      -0.00175375       0.00165373       0.16203169
Sr       0.39399699       2.75865092      15.02512497      -0.22891740       0.11588116       0.09969941
Ti       1.97047269       1.97057450      12.06704812       0.21493677      -0.35071878      -0.11691757
Ti       2.36429575       0.78812580      16.51427409      -0.02128308       0.08033078      -0.07177312
O        0.00000902       1.97050521      12.26959791       0.28595192       0.26126522      -0.06861837
O        0.39428297       0.78819359      16.64506011       0.00407803       0.01090739       0.04744200
O        1.97049401       3.94093312      12.05880438      -0.14412884      -0.45000887       0.09617160
O        2.36466641       2.75866935      16.63193136       0.01765628      -0.00854943       0.04858511
O        1.97043419       1.97038596      10.23367717       0.03032796      -0.08944791      -0.13402929
O        2.36463656       0.78814187      14.69235230      -0.15686763       0.42868671      -0.06259119
10
Lattice="3.940949890606662 0.0 0.0 0.0 3.940949890606662 0.0 0.0 0.0 26.940967945119528" Properties=species:S:1:pos:R:3:forces:R:3 tau=tau17 tau_p=1 tau_q=7 stage=B constraint=xy_fixed_z_free force_label=raw_dft energy=-15499.59330758397 free_energy=-15499.59330758397 stress="0.009947319603070858 -0.00027728359979023443 0.002446890044506539 -0.00027728359979023443 0.010478014704656143 -0.004626596222990037 0.002446890044506539 -0.004626596222990037 -0.0004691785413669198" pbc="T T T"
Sr       0.00003612       0.00009431      10.53172189      -0.00182008       0.00217233       0.10227977
Sr       0.39399699       2.75865092      15.04781752      -0.21398752       0.10587571      -0.00504039
Ti       1.97047269       1.97057450      12.04901859       0.20027248      -0.33139026      -0.09380464
Ti       2.36429575       0.78812580      16.52511596      -0.01989057       0.07600078      -0.03918593
O        0.00000902       1.97050521      12.24631670       0.27052453       0.25002410      -0.01832348
O        0.39428297       0.78819359      16.65693429       0.00385974       0.00948377       0.06394231
O        1.97049401       3.94093312      12.04978543      -0.13716115      -0.42650976       0.11437424
O        2.36466641       2.75866935      16.64418504       0.01627534      -0.00847307       0.06783907
O        1.97043419       1.97038596      10.21822892       0.02889097      -0.08241877      -0.11593567
O        2.36463656       0.78814187      14.70619562      -0.14696349       0.40523543      -0.07614553
10
Lattice="3.940949890606662 0.0 0.0 0.0 3.940949890606662 0.0 0.0 0.0 26.940967945119528" Properties=species:S:1:pos:R:3:forces:R:3 tau=tau17 tau_p=1 tau_q=7 stage=B constraint=xy_fixed_z_free force_label=raw_dft energy=-15499.595485855247 free_energy=-15499.595485855247 stress="0.009700335204582208 -0.00026351123556224264 0.002349565337295397 -0.00026351123556224264 0.010311828176305042 -0.004431028650952554 0.002349565337295397 -0.004431028650952554 -0.0002019946753438794" pbc="T T T"
Sr       0.00003612       0.00009431      10.52743586      -0.00193064       0.00258344       0.04663004
Sr       0.39399699       2.75865092      15.06292829      -0.20280193       0.09933611      -0.05485037
Ti       1.97047269       1.97057450      12.03284481       0.18965511      -0.31641692      -0.05442640
Ti       2.36429575       0.78812580      16.53363164      -0.01899120       0.07340397      -0.00622310
O        0.00000902       1.97050521      12.23001733       0.25986654       0.24142016      -0.01112799
O        0.39428297       0.78819359      16.66920621       0.00372399       0.00851549       0.04549130
O        1.97049401       3.94093312      12.04462776      -0.13269772      -0.41208793       0.09575328
O        2.36466641       2.75866935      16.65689184       0.01521013      -0.00850727       0.05048207
O        1.97043419       1.97038596      10.20274898       0.02763704      -0.07704388      -0.06175224
O        2.36463656       0.78814187      14.71498724      -0.13967158       0.38879708      -0.04997685
10
Lattice="3.940949890606662 0.0 0.0 0.0 3.940949890606662 0.0 0.0 0.0 26.940967945119528" Properties=species:S:1:pos:R:3:forces:R:3 tau=tau17 tau_p=1 tau_q=7 stage=B constraint=xy_fixed_z_free force_label=raw_dft energy=-15499.596493492792 free_energy=-15499.596493492792 stress="0.009701253362197407 -0.00025616597464064704 0.0022926395651530307 -0.00025616597464064704 0.010434861296741768 -0.004348394465584603 0.0022926395651530307 -0.004348394465584603 0.00015425047935350788" pbc="T T T"
Sr       0.00003612       0.00009431      10.52495893      -0.00200006       0.00283181       0.01716674
Sr       0.39399699       2.75865092      15.06848087      -0.19695216       0.09699178      -0.05288888
Ti       1.97047269       1.97057450      12.02276857       0.18454324      -0.30787521      -0.01799875
Ti       2.36429575       0.78812580      16.53898281      -0.01853534       0.07262724       0.00839311
O        0.00000902       1.97050521      12.21989464       0.25393449       0.23609926      -0.01558397
O        0.39428297       0.78819359      16.67767720       0.00365277       0.00797325       0.01752952
O        1.97049401       3.94093312      12.04516025      -0.13149059      -0.40810349       0.05427933
O        2.36466641       2.75866935      16.66582596       0.01460978      -0.00855303       0.02174125
O        1.97043419       1.97038596      10.19247544       0.02702667      -0.07398966      -0.01434136
O        2.36463656       0.78814187      14.71909531      -0.13478880       0.38199805      -0.01829700
10
Lattice="3.940949890606662 0.0 0.0 0.0 3.940949890606662 0.0 0.0 0.0 26.940967945119528" Properties=species:S:1:pos:R:3:forces:R:3 tau=tau17 tau_p=1 tau_q=7 stage=B constraint=xy_fixed_z_free force_label=raw_dft energy=-15499.59689145928 free_energy=-15499.59689145928 stress="0.009743488612496581 -0.00025616597464064704 0.002280703516155438 -0.00025616597464064704 0.010613902031705662 -0.004365839460273392 0.002280703516155438 -0.004365839460273392 0.0003204370077046086" pbc="T T T"
Sr       0.00003612       0.00009431      10.52601784      -0.00207308       0.00293363       0.00887622
Sr       0.39399699       2.75865092      15.06627985      -0.19637366       0.09793435      -0.02908149
Ti       1.97047269       1.97057450      12.02097404       0.18469108      -0.30632020      -0.00077853
Ti       2.36429575       0.78812580      16.53952130      -0.01843198       0.07317874       0.00849210
O        0.00000902       1.97050521      12.21671714       0.25283329       0.23471061      -0.01501499
O        0.39428297       0.78819359      16.67928365       0.00362140       0.00786115       0.00089886
O        1.97049401       3.94093312      12.04989329      -0.13308801      -0.41277082       0.01787765
O        2.36466641       2.75866935      16.66772840       0.01450616      -0.00858903       0.00372964
O        1.97043419       1.97038596      10.19041451       0.02714056      -0.07347442       0.00655323
O        2.36463656       0.78814187      14.71848994      -0.13282602       0.38453625      -0.00155243
10
Lattice="3.940949890606662 0.0 0.0 0.0 3.940949890606662 0.0 0.0 0.0 26.940967945119528" Properties=species:S:1:pos:R:3:forces:R:3 tau=tau17 tau_p=1 tau_q=7 stage=B constraint=xy_fixed_z_free force_label=raw_dft energy=-15499.597043026688 free_energy=-15499.597043026688 stress="0.00972879809065339 -0.00025983860510144484 0.0022889669346922333 -0.00025983860510144484 0.010716735684608 -0.004424601547646158 0.0022889669346922333 -0.004424601547646158 0.00029840122493982177" pbc="T T T"
Sr       0.00003612       0.00009431      10.52923009      -0.00215124       0.00296474       0.00700908
Sr       0.39399699       2.75865092      15.06153410      -0.19815852       0.09999534      -0.00755416
Ti       1.97047269       1.97057450      12.02350476       0.18704544      -0.30810249       0.00299354
Ti       2.36429575       0.78812580      16.53733461      -0.01842864       0.07414316       0.00348410
O        0.00000902       1.97050521      12.21730544       0.25406510       0.23539761      -0.00873867
O        0.39428297       0.78819359      16.67688060       0.00360392       0.00795808      -0.00359363
O        1.97049401       3.94093312      12.05537373      -0.13565140      -0.42033551      -0.00386103
O        2.36466641       2.75866935      16.66546380       0.01464500      -0.00862914      -0.00192961
O        1.97043419       1.97038596      10.19295107       0.02758048      -0.07424060       0.00904411
O        2.36463656       0.78814187      14.71574177      -0.13255014       0.39084856       0.00314626
