10
Lattice="3.940949890606662 0.0 0.0 0.0 3.940949890606662 0.0 0.0 0.0 26.940967945119528" Properties=species:S:1:pos:R:3:forces:R:3 tau=tau43 tau_p=4 tau_q=3 stage=B constraint=xy_fixed_z_free force_label=raw_dft energy=-15499.262741651915 free_energy=-15499.262741651915 stress="0.010361408687525813 4.5907880759972583e-05 0.0012312493619824649 4.5907880759972583e-05 0.01006392562020119 0.0018914046873108705 0.0012312493619824649 0.0018914046873108705 -0.0016536018649742125" pbc="T T T"
Sr       0.00003626       0.00009419      10.33329357      -0.00056333      -0.00027254      -0.00146399
Sr       1.57628183       1.18227078      15.30926774      -0.08702079      -0.17732821      -0.00717286
Ti       1.97047258       1.97057465      11.77368593       0.09211568       0.14226891      -0.04108520
Ti       3.54658061       3.15269568      16.74859250      -0.00899912      -0.00598836       0.05161155
O        0.00000906       1.97050529      11.90289746       0.10932459      -0.10978508      -0.04231496
O        1.57656794       3.15276346      16.88550385       0.00192601       0.01330340       0.03657034
O        1.97049386       3.94093294      11.93540754      -0.07030065       0.17668570      -0.03026188
O        3.54695145       1.18228930      16.88793503       0.00544971       0.00342754       0.03584246
O        1.97043435       1.97038588       9.96050454       0.01376234       0.01986049      -0.03918027
O        3.54692150       3.15271183      14.93823086      -0.05569472      -0.06217185       0.03745480
10
Lattice="3.940949890606662 0.0 0.0 0.0 3.940949890606662 0.0 0.0 0.0 26.940967945119528" Properties=species:S:1:pos:R:3:forces:R:3 tau=tau43 tau_p=4 tau_q=3 stage=B constraint=xy_fixed_z_free force_label=raw_dft energy=-15499.262993901444 free_energy=-15499.262993901444 stress="0.010344881850452223 4.5907880759972583e-05 0.001229413046752066 4.5907880759972583e-05 0.010053825886433996 0.0018895683720804716 0.001229413046752066 0.0018895683720804716 -0.0016499292345134146" pbc="T T T"
Sr       0.00003612       0.00009431      10.33326333      -0.00057464      -0.00029593      -0.00584078
Sr       1.57628196       1.18227095      15.30912009      -0.08689403      -0.17711456      -0.00135266
Ti       1.97047269       1.97057450      11.77284051       0.09201850       0.14201591      -0.03944561
Ti       3.54658072       3.15269575      16.74965470      -0.00901789      -0.00600764       0.04451557
O        0.00000902       1.97050521      11.90202679       0.10912199      -0.10955008      -0.04018917
O        1.57656794       3.15276354      16.88625679       0.00192164       0.01329543       0.03550334
O        1.97049401       3.94093312      11.93478468      -0.07020012       0.17648566      -0.02965330
O        3.54695139       1.18228938      16.88867277       0.00542503       0.00342162       0.03495209
O        1.97043419       1.97038596       9.95969829       0.01374049       0.01984583      -0.03502845
O        3.54692153       3.15271182      14.93900202      -0.05554097      -0.06209626       0.03653898
10
Lattice="3.940949890606662 0.0 0.0 0.0 3.940949890606662 0.0 0.0 0.0 26.940967945119528" Properties=species:S:1:pos:R:3:forces:R:3 tau=tau43 tau_p=4 tau_q=3 stage=B constraint=xy_fixed_z_free force_label=raw_dft energy=-15499.26327145756 free_energy=-15499.26327145756 stress="0.010357736057065015 4.498972314477313e-05 0.001227576731521667 4.498972314477313e-05 0.010072189038737986 0.0018877320568500726 0.001227576731521667 0.0018877320568500726 -0.0016233026636726306" pbc="T T T"
Sr       0.00003612       0.00009431      10.33315445      -0.00059315      -0.00033219      -0.01313859
Sr       1.57628196       1.18227095      15.30903766      -0.08677267      -0.17689961       0.00608812
Ti       1.97047269       1.97057450      11.77184402       0.09191951       0.14181768      -0.03860357
Ti       3.54658072       3.15269575      16.75082318      -0.00904334      -0.00600378       0.03928106
O        0.00000902       1.97050521      11.90100770       0.10887542      -0.10926623      -0.03778416
O        1.57656794       3.15276354      16.88715026       0.00190776       0.01325866       0.03500943
O        1.97049401       3.94093312      11.93404079      -0.07008159       0.17624629      -0.02896476
O        3.54695139       1.18228938      16.88955103       0.00541834       0.00340697       0.03444790
O        1.97043419       1.97038596       9.95879082       0.01372223       0.01979492      -0.03244321
O        3.54692153       3.15271182      14.93992003      -0.05535251      -0.06202272       0.03610780
10
Lattice="3.940949890606662 0.0 0.0 0.0 3.940949890606662 0.0 0.0 0.0 26.940967945119528" Properties=species:S:1:pos:R:3:forces:R:3 tau=tau43 tau_p=4 tau_q=3 stage=B constraint=xy_fixed_z_free force_label=raw_dft energy=-15499.26368479848 free_energy=-15499.26368479848 stress="0.01036599947560181 4.4071565529573677e-05 0.0012239041010608691 4.4071565529573677e-05 0.010090552191041975 0.0018849775840044745 0.0012239041010608691 0.0018849775840044745 -0.0016021850385230434" pbc="T T T"
Sr       0.00003612       0.00009431      10.33277682      -0.00060909      -0.00037795      -0.02138078
Sr       1.57628196       1.18227095      15.30910772      -0.08653845      -0.17648721       0.01614139
Ti       1.97047269       1.97057450      11.77025225       0.09170405       0.14141813      -0.03429389
Ti       3.54658072       3.15269575      16.75257591      -0.00904874      -0.00598244       0.03378275
O        0.00000902       1.97050521      11.89942305       0.10846147      -0.10880292      -0.03490298
O        1.57656794       3.15276354      16.88858437       0.00189285       0.01320724       0.03360997
O        1.97049401       3.94093312      11.93285501      -0.06986690       0.17580021      -0.02865263
O        3.54695139       1.18228938      16.89095998       0.00539752       0.00339308       0.03314126
O        1.97043419       1.97038596       9.95738939       0.01368033       0.01972319      -0.03048428
O        3.54692153       3.15271182      14.94139545      -0.05507329      -0.06189160       0.03303945
10
Lattice="3.940949890606662 0.0 0.0 0.0 3.940949890606662 0.0 0.0 0.0 26.940967945119528" Properties=species:S:1:pos:R:3:forces:R:3 tau=tau43 tau_p=4 tau_q=3 stage=B constraint=xy_fixed_z_free force_label=raw_dft energy=-15499.264276373964 free_energy=-15499.264276373964 stress="0.010375181051753803 4.3153407914374227e-05 0.0012183951553696724 4.3153407914374227e-05 0.01011442428903716 0.0018794686383132775 0.0012183951553696724 0.0018794686383132775 -0.0015700495219910624" pbc="T T T"
Sr       0.00003612       0.00009431      10.33197663      -0.00062812      -0.00042423      -0.03250337
Sr       1.57628196       1.18227095      15.30947565      -0.08615638      -0.17578709       0.02934966
Ti       1.97047269       1.97057450      11.76786900       0.09136826       0.14075376      -0.02942011
Ti       3.54658072       3.15269575      16.75520499      -0.00906751      -0.00597473       0.02649625
O        0.00000902       1.97050521      11.89699973       0.10781510      -0.10807761      -0.03060950
O        1.57656794       3.15276354      16.89080425       0.00187459       0.01313217       0.03150784
O        1.97049401       3.94093312      11.93099306      -0.06952289       0.17508056      -0.02804251
O        3.54695139       1.18228938      16.89314290       0.00536615       0.00337432       0.03117668
O        1.97043419       1.97038596       9.95522388       0.01361322       0.01961417      -0.02712822
O        3.54692153       3.15271182      14.94362987      -0.05466268      -0.06169131       0.02917354
10
Lattice="3.940949890606662 0.0 0.0 0.0 3.940949890606662 0.0 0.0 0.0 26.940967945119528" Properties=species:S:1:pos:R:3:forces:R:3 tau=tau43 tau_p=4 tau_q=3 stage=B constraint=xy_fixed_z_free force_label=raw_dft energy=-15499.265104688491 free_energy=-15499.265104688491 stress="0.010388035258366598 4.1317092683975326e-05 0.0012101317368328772 4.1317092683975326e-05 0.010149314278414739 0.001870287062161283 0.0012101317368328772 0.001870287062161283 -0.001520469010770292" pbc="T T T"
Sr       0.00003612       0.00009431      10.33046079      -0.00064740      -0.00047617      -0.04707073
Sr       1.57628196       1.18227095      15.31037202      -0.08553906      -0.17464038       0.04654468
Ti       1.97047269       1.97057450      11.76427443       0.09085662       0.13969678      -0.02267764
Ti       3.54658072       3.15269575      16.75914862      -0.00914490      -0.00594825       0.01621955
O        0.00000902       1.97050521      11.89331815       0.10681288      -0.10695841      -0.02445890
O        1.57656794       3.15276354      16.89421729       0.00185454       0.01300901       0.02857395
O        1.97049401       3.94093312      11.92809594      -0.06897087       0.17391327      -0.02711203
O        3.54695139       1.18228938      16.89650198       0.00532321       0.00334912       0.02843614
O        1.97043419       1.97038596       9.95191513       0.01350960       0.01944422      -0.02267970
O        3.54692153       3.15271182      14.94701561      -0.05405436      -0.06138920       0.02422493
10
Lattice="3.940949890606662 0.0 0.0 0.0 3.940949890606662 0.0 0.0 0.0 26.940967945119528" Properties=species:S:1:pos:R:3:forces:R:3 tau=tau43 tau_p=4 tau_q=3 stage=B constraint=xy_fixed_z_free force_label=raw_dft energy=-15499.26623178401 free_energy=-15499.26623178401 stress="0.010410071041131383 3.9480777453576426e-05 0.0011972775302200851 3.9480777453576426e-05 0.010201649262481108 0.0018574328555484908 0.0011972775302200851 0.0018574328555484908 -0.0014424256134783387" pbc="T T T"
Sr       0.00003612       0.00009431      10.32774439      -0.00067569      -0.00054944      -0.06651778
Sr       1.57628196       1.18227095      15.31219196      -0.08457155      -0.17278636       0.06951157
Ti       1.97047269       1.97057450      11.75884542       0.09004955       0.13813509      -0.01326175
Ti       3.54658072       3.15269575      16.76506406      -0.00919221      -0.00588705       0.00239550
O        0.00000902       1.97050521      11.88772647       0.10527022      -0.10526713      -0.01588916
O        1.57656794       3.15276354      16.89946600       0.00181571       0.01280101       0.02432624
O        1.97049401       3.94093312      11.92359385      -0.06811341       0.17202968      -0.02601314
O        3.54695139       1.18228938      16.90167188       0.00523734       0.00329795       0.02444528
O        1.97043419       1.97038596       9.94685069       0.01334454       0.01916706      -0.01675845
O        3.54692153       3.15271182      14.95216523      -0.05316424      -0.06094106       0.01776195
10
Lattice="3.940949890606662 0.0 0.0 0.0 3.940949890606662 0.0 0.0 0.0 26.940967945119528" Properties=species:S:1:pos:R:3:forces:R:3 tau=tau43 tau_p=4 tau_q=3 stage=B constraint=xy_fixed_z_free force_label=raw_dft energy=-15499.267695348291 free_energy=-15499.267695348291 stress="0.010435779454356968 3.580814699277862e-05 0.0011779962203008966 3.580814699277862e-05 0.010271429241236266 0.0018353970727837039 0.0011779962203008966 0.0018353970727837039 -0.0013304103844240056" pbc="T T T"
Sr       0.00003612       0.00009431      10.32301788      -0.00068263      -0.00062529      -0.09151919
Sr       1.57628196       1.18227095      15.31562173      -0.08302812      -0.16981468       0.09926849
Ti       1.97047269       1.97057450      11.75065784       0.08874574       0.13573522      -0.00100350
Ti       3.54658072       3.15269575      16.77393723      -0.00937424      -0.00599324      -0.01597298
O        0.00000902       1.97050521      11.87924565       0.10294029      -0.10267418      -0.00376589
O        1.57656794       3.15276354      16.90752095       0.00178795       0.01248399       0.01825715
O        1.97049401       3.94093312      11.91660330      -0.06675149       0.16906854      -0.02442934
O        3.54695139       1.18228938      16.90961165       0.00511958       0.00326504       0.01875311
O        1.97043419       1.97038596       9.93910159       0.01309849       0.01876417      -0.00832703
O        3.54692153       3.15271182      14.96000215      -0.05185555      -0.06020932       0.00873918
10
Lattice="3.940949890606662 0.0 0.0 0.0 3.940949890606662 0.0 0.0 0.0 26.940967945119528" Properties=species:S:1:pos:R:3:forces:R:3 tau=tau43 tau_p=4 tau_q=3 stage=B constraint=xy_fixed_z_free force_label=raw_dft energy=-15499.269459734422 free_energy=-15499.269459734422 stress="0.010476178389425743 3.2135516531980806e-05 0.0011495333342297135 3.2135516531980806e-05 0.010372426578908205 0.0018014252410213242 0.0011495333342297135 0.0018014252410213242 -0.0011596330679969073" pbc="T T T"
Sr       0.00003612       0.00009431      10.31489191      -0.00070680      -0.00065409      -0.12298846
Sr       1.57628196       1.18227095      15.32188337      -0.08065165      -0.16512344       0.13670556
Ti       1.97047269       1.97057450      11.73829207       0.08668474       0.13216473       0.01523790
Ti       3.54658072       3.15269575      16.78724697      -0.00943672      -0.00624161      -0.04030024
O        0.00000902       1.97050521      11.86639690       0.09940708      -0.09878718       0.01294628
O        1.57656794       3.15276354      16.91988719       0.00173241       0.01199471       0.00982213
O        1.97049401       3.94093312      11.90573323      -0.06466273       0.16440148      -0.02229969
O        3.54695139       1.18228938      16.92181135       0.00492983       0.00317454       0.01094801
O        1.97043419       1.97038596       9.92724946       0.01268711       0.01812936       0.00254796
O        3.54692153       3.15271182      14.97192751      -0.04998327      -0.05905850      -0.00261918
10
Lattice="3.940949890606662 0.0 0.0 0.0 3.940949890606662 0.0 0.0 0.0 26.940967945119528" Properties=species:S:1:pos:R:3:forces:R:3 tau=tau43 tau_p=4 tau_q=3 stage=B constraint=xy_fixed_z_free force_label=raw_dft energy=-15499.271434192433 free_energy=-15499.271434192433 stress="0.010525758900646514 2.66265708407841e-05 0.0011045436110849404 2.66265708407841e-05 0.010505559433112127 0.0017463357841093572 0.0011045436110849404 0.0017463357841093572 -0.0009080578814322578" pbc="T T T"
Sr       0.00003612       0.00009431      10.30081602      -0.00067132      -0.00061681      -0.15841184
Sr       1.57628196       1.18227095      15.33329953      -0.07693538      -0.15770838       0.17834329
Ti       1.97047269       1.97057450      11.71957880       0.08268951       0.12674253       0.03154666
Ti       3.54658072       3.15269575      16.80721159      -0.00902791      -0.00674555      -0.06810749
O        0.00000902       1.97050521      11.84690598       0.09417077      -0.09300169       0.03555707
O        1.57656794       3.15276354      16.93895952       0.00166350       0.01128251      -0.00179283
O        1.97049401       3.94093312      11.88870402      -0.06140129       0.15704427      -0.01891329
O        3.54695139       1.18228938      16.94065094       0.00469252       0.00306193       0.00053428
O        1.97043419       1.97038596       9.90902731       0.01206362       0.01713615       0.01620412
O        3.54692153       3.15271182      14.99016625      -0.04724402      -0.05719496      -0.01496022
10
Lattice="3.940949890606662 0.0 0.0 0.0 3.940949890606662 0.0 0.0 0.0 26.940967945119528" Properties=species:S:1:pos:R:3:forces:R:3 tau=tau43 tau_p=4 tau_q=3 stage=B constraint=xy_fixed_z_free force_label=raw_dft energy=-15499.273513006105 free_energy=-15499.273513006105 stress="0.01058360283040408 2.3872097995185745e-05 0.001048535996557774 2.3872097995185745e-05 0.010647873863468042 0.0016738013325086004 0.001048535996557774 0.0016738013325086004 -0.0006197563902596299" pbc="T T T"
Sr       0.00003612       0.00009431      10.28054259      -0.00064869      -0.00047385      -0.18198911
Sr       1.57628196       1.18227095      15.35054052      -0.07233542      -0.14819016       0.20606775
Ti       1.97047269       1.97057450      11.69643393       0.07742774       0.11970671       0.04191798
Ti       3.54658072       3.15269575      16.83150452      -0.00772745      -0.00695149      -0.08735349
O        0.00000902       1.97050521      11.82296682       0.08772707      -0.08605662       0.05701756
O        1.57656794       3.15276354      16.96296416       0.00146142       0.01039651      -0.01384231
O        1.97049401       3.94093312      11.86680863      -0.05734666       0.14757207      -0.01566650
O        3.54695139       1.18228938      16.96442097       0.00441613       0.00282950      -0.00970874
O        1.97043419       1.97038596       9.88616204       0.01112542       0.01587708       0.02559019
O        3.54692153       3.15271182      15.01297579      -0.04409956      -0.05470999      -0.02203333
10
Lattice="3.940949890606662 0.0 0.0 0.0 3.940949890606662 0.0 0.0 0.0 26.940967945119528" Properties=species:S:1:pos:R:3:forces:R:3 tau=tau43 tau_p=4 tau_q=3 stage=B constraint=xy_fixed_z_free force_label=raw_dft energy=-15499.276056318098 free_energy=-15499.276056318098 stress="0.010656137282004836 2.0199467534387938e-05 0.0009870194363394106 2.0199467534387938e-05 0.010791106451439155 0.0015920853047558493 0.0009870194363394106 0.0015920853047558493 -0.00035808146992778614" pbc="T T T"
Sr       0.00003612       0.00009431      10.25489587      -0.00056487      -0.00032087      -0.18381022
Sr       1.57628196       1.18227095      15.37316062      -0.06722021      -0.13761084       0.21472645
Ti       1.97047269       1.97057450      11.67099062       0.07238452       0.11162162       0.05164678
Ti       3.54658072       3.15269575      16.85770398      -0.00742972      -0.00636939      -0.08649705
O        0.00000902       1.97050521      11.79706747       0.08095813      -0.07887322       0.06836101
O        1.57656794       3.15276354      16.98968638       0.00132489       0.00940895      -0.02495796
O        1.97049401       3.94093312      11.84180172      -0.05286959       0.13699172      -0.01700656
O        3.54695139       1.18228938      16.99098173       0.00410965       0.00251351      -0.01966560
O        1.97043419       1.97038596       9.86065685       0.01014532       0.01456813       0.02663869
O        3.54692153       3.15271182      15.03837471      -0.04083812      -0.05192960      -0.02943527
10
Lattice="3.940949890606662 0.0 0.0 0.0 3.940949890606662 0.0 0.0 0.0 26.940967945119528" Properties=species:S:1:pos:R:3:forces:R:3 tau=tau43 tau_p=4 tau_q=3 stage=B constraint=xy_fixed_z_free force_label=raw_dft energy=-15499.279590532635 free_energy=-15499.279590532635 stress="0.010781924875287162 1.3772364227991774e-05 0.0009071397238170583 1.3772364227991774e-05 0.010983001393015841 0.0014763974452407182 0.0009071397238170583 0.0014763974452407182 -1.3772364227991774e-05" pbc="T T T"
Sr       0.00003612       0.00009431      10.21481253      -0.00033244      -0.00013601      -0.15633259
Sr       1.57628196       1.18227095      15.40963176      -0.06014453      -0.12328825       0.20183314
Ti       1.97047269       1.97057450      11.63560393       0.06583952       0.10113563       0.06238833
Ti       3.54658072       3.15269575      16.89406300      -0.00733124      -0.00570631      -0.07989163
O        0.00000902       1.97050521      11.76136755       0.07213204      -0.06974606       0.06890659
O        1.57656794       3.15276354      17.02735499       0.00119299       0.00807558      -0.03457465
O        1.97049401       3.94093312      11.80541884      -0.04695631       0.12262311      -0.02372408
O        3.54695139       1.18228938      17.02855498       0.00353424       0.00222863      -0.03000786
O        1.97043419       1.97038596       9.82434267       0.00900889       0.01294268       0.02459697
O        3.54692153       3.15271182      15.07416971      -0.03694315      -0.04812925      -0.03319423
10
Lattice="3.940949890606662 0.0 0.0 0.0 3.940949890606662 0.0 0.0 0.0 26.940967945119528" Properties=species:S:1:pos:R:3:forces:R:3 tau=tau43 tau_p=4 tau_q=3 stage=B constraint=xy_fixed_z_free force_label=raw_dft energy=-15499.283475229795 free_energy=-15499.283475229795 stress="0.010908630626184685 5.5089456911967096e-06 0.000835523429831501 5.5089456911967096e-06 0.01110328004060697 0.001366218531416784 0.000835523429831501 0.001366218531416784 0.00028646517594222896" pbc="T T T"
Sr       0.00003612       0.00009431      10.17086198      -0.00001800       0.00022960      -0.08320758
Sr       1.57628196       1.18227095      15.45183159      -0.05384096      -0.10981233       0.13639985
Ti       1.97047269       1.97057450      11.60388126       0.05866666       0.09259520       0.03672872
Ti       3.54658072       3.15269575      16.92651278      -0.00571171      -0.00608169      -0.04353932
O        0.00000902       1.97050521      11.72952378       0.06444110      -0.06209137       0.05005449
O        1.57656794       3.15276354      17.06231529       0.00089757       0.00697875      -0.03204649
O        1.97049401       3.94093312      11.76935283      -0.04149992       0.10926494      -0.03133121
O        3.54695139       1.18228938      17.06360176       0.00316143       0.00199286      -0.03190790
O        1.97043419       1.97038596       9.79003041       0.00794857       0.01164298       0.02192688
O        3.54692153       3.15271182      15.10740828      -0.03404475      -0.04471894      -0.02307694
10
Lattice="3.940949890606662 0.0 0.0 0.0 3.940949890606662 0.0 0.0 0.0 26.940967945119528" Properties=species:S:1:pos:R:3:forces:R:3 tau=tau43 tau_p=4 tau_q=3 stage=B constraint=xy_fixed_z_free force_label=raw_dft energy=-15499.285320025563 free_energy=-15499.285320025563 stress="0.01093250272417987 4.590788075997259e-06 0.0007859429186107306 4.590788075997259e-06 0.011050945056540602 0.0012854206612792323 0.0007859429186107306 0.0012854206612792323 0.00045081538906293077" pbc="T T T"
Sr       0.00003612       0.00009431      10.13668940       0.00017226       0.00043297      -0.00009770
Sr       1.57628196       1.18227095      15.48679707      -0.04962306      -0.10020617       0.03236505
Ti       1.97047269       1.97057450      11.58320284       0.05421737       0.08666649      -0.00229445
Ti       3.54658072       3.15269575      16.94747113      -0.00490387      -0.00603309      -0.01881739
O        0.00000902       1.97050521      11.70941401       0.05940045      -0.05720113       0.02729586
O        1.57656794       3.15276354      17.08544715       0.00073071       0.00619199      -0.01572744
O        1.97049401       3.94093312      11.74293971      -0.03778622       0.09985985      -0.03047246
O        3.54695139       1.18228938      17.08681919       0.00288272       0.00177098      -0.01661267
O        1.97043419       1.97038596       9.76689635       0.00722351       0.01077087       0.00876978
O        3.54692153       3.15271182      15.12964310      -0.03231388      -0.04225300       0.01559194
10
Lattice="3.940949890606662 0.0 0.0 0.0 3.940949890606662 0.0 0.0 0.0 26.940967945119528" Properties=species:S:1:pos:R:3:forces:R:3 tau=tau43 tau_p=4 tau_q=3 stage=B constraint=xy_fixed_z_free force_label=raw_dft energy=-15499.285463973783 free_energy=-15499.285463973783 stress="0.0108865948434199 4.590788075997259e-06 0.0007877792338411295 4.590788075997259e-06 0.010958211137405456 0.0012845025036640329 0.0007877792338411295 0.0012845025036640329 0.0003406364752389966" pbc="T T T"
Sr       0.00003612       0.00009431      10.13669848       0.00019335       0.00046383       0.01245982
Sr       1.57628196       1.18227095      15.48806156      -0.04971665      -0.10011541       0.01113519
Ti       1.97047269       1.97057450      11.58486719       0.05426905       0.08684698      -0.00235410
Ti       3.54658072       3.15269575      16.94515126      -0.00489075      -0.00600455      -0.00060344
O        0.00000902       1.97050521      11.71192884       0.05960768      -0.05744667       0.02021427
O        1.57656794       3.15276354      17.08348006       0.00073122       0.00619713      -0.01004247
O        1.97049401       3.94093312      11.74323111      -0.03775279       0.09973052      -0.02760542
O        3.54695139       1.18228938      17.08487459       0.00288658       0.00177432      -0.01104597
O        1.97043419       1.97038596       9.76854093       0.00722146       0.01080686       0.00009976
O        3.54692153       3.15271182      15.12848593      -0.03254914      -0.04225274       0.00774236
10
Lattice="3.940949890606662 0.0 0.0 0.0 3.940949890606662 0.0 0.0 0.0 26.940967945119528" Properties=species:S:1:pos:R:3:forces:R:3 tau=tau43 tau_p=4 tau_q=3 stage=B constraint=xy_fixed_z_free force_label=raw_dft energy=-15499.285544383423 free_energy=-15499.285544383423 stress="0.010838850647429527 5.5089456911967096e-06 0.0007969608099931241 5.5089456911967096e-06 0.010858131957348716 0.0012936840798160275 0.0007969608099931241 0.0012936840798160275 0.00023688466472145852" pbc="T T T"
Sr       0.00003612       0.00009431      10.14119760       0.00020363       0.00047514       0.01414570
Sr       1.57628196       1.18227095      15.48503800      -0.05034708      -0.10116802      -0.00099065
Ti       1.97047269       1.97057450      11.58944414       0.05485834       0.08785511      -0.00247649
Ti       3.54658072       3.15269575      16.94010976      -0.00504528      -0.00603258       0.00600404
O        0.00000902       1.97050521      11.71746146       0.06052120      -0.05837098       0.01540528
O        1.57656794       3.15276354      17.07827570       0.00075976       0.00629277      -0.00380858
O        1.97049401       3.94093312      11.74669100      -0.03815029       0.10073017      -0.02258200
O        3.54695139       1.18228938      17.07967422       0.00293646       0.00180466      -0.00477017
O        1.97043419       1.97038596       9.77322920       0.00731556       0.01095907      -0.00296243
O        3.54692153       3.15271182      15.12419888      -0.03305205      -0.04254533       0.00203529
