10
Lattice="3.940949890606662 0.0 0.0 0.0 3.940949890606662 0.0 0.0 0.0 26.940967945119528" Properties=species:S:1:pos:R:3:forces:R:3 tau=tau25 tau_p=2 tau_q=5 stage=A constraint=rigid_scf force_label=raw_dft energy=-15497.090498103174 free_energy=-15497.090498103174 stress="0.00639588594747938 -0.0 0.00169124632719739 -0.0 0.021293911411705682 1.8363152303989035e-06 0.00169124632719739 1.8363152303989035e-06 -0.02704157808285425" pbc="T T T"
Sr       0.00003626       0.00009419      10.75260867      -0.01459410      -0.00005862       0.50264681
Sr       0.78809185       1.97046076      14.64522241      -1.28067034      -0.00025068       4.93245084
Ti       1.97047258       1.97057465      12.38212169       1.58022237       0.00064355      -4.01326989
Ti       2.75839063       3.94088565      16.28444791       0.06584775       0.00007508      -0.23476897
O        0.00000906       1.97050529      12.45001441      -0.05035968      -0.00019823      -0.98460884
O        0.78837796       0.00000355      16.39256827       0.01981086       0.00002648      -0.07686133
O        1.97049386       3.94093294      12.44909065      -1.25891007      -0.00044326      -2.32845967
O        2.75876148       1.97047928      16.37955485       0.16259425      -0.00008485      -0.22757837
O        1.97043435       1.97038588      10.49176941       0.08458055       0.00026431       0.40882263
O        2.75873153       3.94090181      14.44792112       0.69147865       0.00002597       2.02162653
