10
Lattice="3.940949890606662 0.0 0.0 0.0 3.940949890606662 0.0 0.0 0.0 26.940967945119528" Properties=species:S:1:pos:R:3:forces:R:3 tau=tau75 tau_p=7 tau_q=5 stage=B constraint=xy_fixed_z_free force_label=raw_dft energy=-15499.120288424696 free_energy=-15499.120288424696 stress="0.010437615769587367 -0.0 -0.0023826190114425772 -0.0 0.007880546811256894 1.8363152303989035e-06 -0.0023826190114425772 1.8363152303989035e-06 -0.0024404629412001426" pbc="T T T"
Sr       0.00003626       0.00009419      10.46831643       0.00540626      -0.00008228      -0.61259952
Sr       2.75856679       1.97046076      15.21591728       0.26418805      -0.00013961       0.23935171
Ti       1.97047258       1.97057465      11.83355487      -0.17091640      -0.00011519       0.03622813
Ti       0.78791569       3.94088565      16.65677822       0.00412328       0.00009744       0.26115492
O        0.00000906       1.97050529      12.09370012      -0.26203706      -0.00013601      -0.26554868
O        2.75885291       0.00000355      16.83467545      -0.00542349      -0.00000051      -0.31065303
O        1.97049386       3.94093294      11.86647953       0.12272801      -0.00003060       0.59737551
O        0.78828653       1.97047928      16.83818763      -0.02130468      -0.00003934      -0.33750614
O        1.97043435       1.97038588      10.03767031      -0.02074109       0.00039132      -0.06488282
O        0.78825658       3.94090181      14.83003957       0.08397686       0.00005451       0.45708018
10
Lattice="3.940949890606662 0.0 0.0 0.0 3.940949890606662 0.0 0.0 0.0 26.940967945119528" Properties=species:S:1:pos:R:3:forces:R:3 tau=tau75 tau_p=7 tau_q=5 stage=B constraint=xy_fixed_z_free force_label=raw_dft energy=-15499.145196909147 free_energy=-15499.145196909147 stress="0.010544122052950505 -0.0 -0.0023504834949105964 -0.0 0.008139467258743139 1.8363152303989035e-06 -0.0023504834949105964 1.8363152303989035e-06 -0.0027085649648383825" pbc="T T T"
Sr       0.00003612       0.00009431      10.45570827       0.00458633      -0.00007353      -0.47766623
Sr       2.75856694       1.97046093      15.22084352       0.26122871      -0.00013910       0.20302690
Ti       1.97047269       1.97057450      11.83430055      -0.17022143      -0.00011904       0.05749424
Ti       0.78791578       3.94088573      16.66215321       0.00400295       0.00010002       0.18135250
O        0.00000902       1.97050521      12.08823457      -0.25573838      -0.00014552      -0.27716621
O        2.75885292       0.00000361      16.82828176      -0.00536486      -0.00000386      -0.21109554
O        1.97049401       3.94093312      11.87877447       0.12317024      -0.00003111       0.47651360
O        0.78828644       1.97047936      16.83124127      -0.02133167      -0.00004602      -0.23614683
O        1.97043419       1.97038596      10.03633514      -0.02068684       0.00039904      -0.08431393
O        0.78825659       3.94090180      14.83944720       0.08035494       0.00005888       0.36800148
10
Lattice="3.940949890606662 0.0 0.0 0.0 3.940949890606662 0.0 0.0 0.0 26.940967945119528" Properties=species:S:1:pos:R:3:forces:R:3 tau=tau75 tau_p=7 tau_q=5 stage=B constraint=xy_fixed_z_free force_label=raw_dft energy=-15499.166545192187 free_energy=-15499.166545192187 stress="0.010602884140323269 -0.0 -0.002312839032687419 -0.0 0.008470004000214942 1.8363152303989035e-06 -0.002312839032687419 1.8363152303989035e-06 -0.002906887009721464" pbc="T T T"
Sr       0.00003612       0.00009431      10.44183909       0.00363991      -0.00008176      -0.34456690
Sr       2.75856694       1.97046093      15.22671897       0.25781737      -0.00013370       0.16661546
Ti       1.97047269       1.97057450      11.83593512      -0.16966221      -0.00011030       0.02423110
Ti       0.78791578       3.94088573      16.66744534       0.00390602       0.00011390       0.13076965
O        0.00000902       1.97050521      12.08027037      -0.24840070      -0.00015298      -0.27140951
O        2.75885292       0.00000361      16.82211550      -0.00533504      -0.00000771      -0.11037334
O        1.97049401       3.94093312      11.89259743       0.12397011      -0.00002597       0.35362104
O        0.78828644       1.97047936      16.82435252      -0.02137307      -0.00006068      -0.13355647
O        1.97043419       1.97038596      10.03392718      -0.02070844       0.00038927      -0.06686282
O        0.78825659       3.94090180      14.85011843       0.07614579       0.00006993       0.25153205
10
Lattice="3.940949890606662 0.0 0.0 0.0 3.940949890606662 0.0 0.0 0.0 26.940967945119528" Properties=species:S:1:pos:R:3:forces:R:3 tau=tau75 tau_p=7 tau_q=5 stage=B constraint=xy_fixed_z_free force_label=raw_dft energy=-15499.186801074222 free_energy=-15499.186801074222 stress="0.010561567047639293 -0.0 -0.002250404314853856 -0.0 0.008970399900498643 1.8363152303989035e-06 -0.002250404314853856 1.8363152303989035e-06 -0.0031869250823572965" pbc="T T T"
Sr       0.00003612       0.00009431      10.42135361       0.00234048      -0.00007790      -0.15826040
Sr       2.75856694       1.97046093      15.23619264       0.25168143      -0.00013190       0.10715072
Ti       1.97047269       1.97057450      11.83761401      -0.16859366      -0.00008896      -0.01943291
Ti       0.78791578       3.94088573      16.67528850       0.00367359       0.00012830       0.06587243
O        0.00000902       1.97050521      12.06570248      -0.23678703      -0.00016249      -0.25263763
O        2.75885292       0.00000361      16.81466439      -0.00527539      -0.00000951       0.02737042
O        1.97049401       3.94093312      11.91340121       0.12545055      -0.00003522       0.18086142
O        0.78828644       1.97047936      16.81563255      -0.02126637      -0.00008382       0.00833809
O        1.97043419       1.97038596      10.03016889      -0.02083853       0.00038592      -0.05183318
O        0.78825659       3.94090180      14.86530167       0.06961467       0.00007559       0.09257103
10
Lattice="3.940949890606662 0.0 0.0 0.0 3.940949890606662 0.0 0.0 0.0 26.940967945119528" Properties=species:S:1:pos:R:3:forces:R:3 tau=tau75 tau_p=7 tau_q=5 stage=B constraint=xy_fixed_z_free force_label=raw_dft energy=-15499.195883553872 free_energy=-15499.195883553872 stress="0.010351308953758617 -0.0 -0.002173279075177102 -0.0 0.009547921040459099 1.8363152303989035e-06 -0.002173279075177102 1.8363152303989035e-06 -0.0034072829100051656" pbc="T T T"
Sr       0.00003612       0.00009431      10.39991384       0.00115160      -0.00007225       0.01755806
Sr       2.75856694       1.97046093      15.24726908       0.24365239      -0.00013061       0.03979476
Ti       1.97047269       1.97057450      11.83809912      -0.16736365      -0.00008485      -0.06568372
Ti       0.78791578       3.94088573      16.68378686       0.00324782       0.00015170       0.00888496
O        0.00000902       1.97050521      12.04556849      -0.22336253      -0.00017046      -0.21394869
O        2.75885292       0.00000361      16.80987909      -0.00510441      -0.00001157       0.15280632
O        1.97049401       3.94093312      11.93587822       0.12761979      -0.00003934       0.01034201
O        0.78828644       1.97047936      16.80919923      -0.02089124      -0.00010439       0.13966412
O        1.97043419       1.97038596      10.02546274      -0.02107353       0.00038309      -0.04394015
O        0.78825659       3.94090180      14.88026329       0.06212377       0.00007842      -0.04547767
10
Lattice="3.940949890606662 0.0 0.0 0.0 3.940949890606662 0.0 0.0 0.0 26.940967945119528" Properties=species:S:1:pos:R:3:forces:R:3 tau=tau75 tau_p=7 tau_q=5 stage=B constraint=xy_fixed_z_free force_label=raw_dft energy=-15499.198289312319 free_energy=-15499.198289312319 stress="0.010229193990937092 -0.0 -0.0021429798738755203 -0.0 0.009748079400572578 1.8363152303989035e-06 -0.0021429798738755203 1.8363152303989035e-06 -0.003370556605397187" pbc="T T T"
Sr       0.00003612       0.00009431      10.39486251       0.00092431      -0.00007071       0.04663544
Sr       2.75856694       1.97046093      15.25087532       0.24011198      -0.00013035       0.02600517
Ti       1.97047269       1.97057450      11.83670575      -0.16684120      -0.00007533      -0.07769977
Ti       0.78791578       3.94088573      16.68620506       0.00302182       0.00013987       0.00490361
O        0.00000902       1.97050521      12.03598806      -0.21863839      -0.00016969      -0.18560999
O        2.75885292       0.00000361      16.81193618      -0.00499463      -0.00001183       0.16070655
O        1.97049401       3.94093312      11.94176115       0.12867960      -0.00004139      -0.03085889
O        0.78828644       1.97047936      16.81056602      -0.02053874      -0.00010259       0.15031646
O        1.97043419       1.97038596      10.02335050      -0.02125634       0.00038207      -0.04578081
O        0.78825659       3.94090180      14.88306942       0.05953132       0.00007996      -0.04861776
10
Lattice="3.940949890606662 0.0 0.0 0.0 3.940949890606662 0.0 0.0 0.0 26.940967945119528" Properties=species:S:1:pos:R:3:forces:R:3 tau=tau75 tau_p=7 tau_q=5 stage=B constraint=xy_fixed_z_free force_label=raw_dft energy=-15499.201086098352 free_energy=-15499.201086098352 stress="0.010090552191041975 -0.0 -0.0021108443573435395 -0.0 0.00993171092361247 1.8363152303989035e-06 -0.0021108443573435395 1.8363152303989035e-06 -0.0032961858385660314" pbc="T T T"
Sr       0.00003612       0.00009431      10.39125998       0.00079190      -0.00007251       0.05732326
Sr       2.75856694       1.97046093      15.25425524       0.23624376      -0.00013010       0.01874668
Ti       1.97047269       1.97057450      11.83432387      -0.16610638      -0.00007405      -0.08413292
Ti       0.78791578       3.94088573      16.68840148       0.00277988       0.00013910       0.01159902
O        0.00000902       1.97050521      12.02544959      -0.21401066      -0.00017072      -0.15143875
O        2.75885292       0.00000361      16.81587224      -0.00487841      -0.00001157       0.15023239
O        1.97049401       3.94093312      11.94618006       0.12971395      -0.00003934      -0.06123545
O        0.78828644       1.97047936      16.81378715      -0.02010166      -0.00010284       0.14276076
O        1.97043419       1.97038596      10.02090528      -0.02145868       0.00038181      -0.04986963
O        0.78825659       3.94090180      14.88488508       0.05702655       0.00007970      -0.03398536
10
Lattice="3.940949890606662 0.0 0.0 0.0 3.940949890606662 0.0 0.0 0.0 26.940967945119528" Properties=species:S:1:pos:R:3:forces:R:3 tau=tau75 tau_p=7 tau_q=5 stage=B constraint=xy_fixed_z_free force_label=raw_dft energy=-15499.204998959294 free_energy=-15499.204998959294 stress="0.009885803042852496 -0.0 -0.002063100161353168 -0.0 0.010170431903564326 1.8363152303989035e-06 -0.002063100161353168 1.8363152303989035e-06 -0.0031612166691317124" pbc="T T T"
Sr       0.00003612       0.00009431      10.38735692       0.00070962      -0.00007610       0.05391089
Sr       2.75856694       1.97046093      15.25897241       0.23041815      -0.00013190       0.01542148
Ti       1.97047269       1.97057450      11.82980938      -0.16480848      -0.00007559      -0.08794818
Ti       0.78791578       3.94088573      16.69167301       0.00248754       0.00014244       0.02972170
O        0.00000902       1.97050521      12.00964188      -0.20750911      -0.00016764      -0.09852133
O        2.75885292       0.00000361      16.82312755      -0.00471232      -0.00001234       0.12165817
O        1.97049401       3.94093312      11.95081643       0.13096454      -0.00003625      -0.09470838
O        0.78828644       1.97047936      16.82001802      -0.01941851      -0.00010079       0.11848363
O        1.97043419       1.97038596      10.01686322      -0.02173585       0.00037975      -0.05669128
O        0.78825659       3.94090180      14.88704114       0.05360493       0.00007893      -0.00132695
10
Lattice="3.940949890606662 0.0 0.0 0.0 3.940949890606662 0.0 0.0 0.0 26.940967945119528" Properties=species:S:1:pos:R:3:forces:R:3 tau=tau75 tau_p=7 tau_q=5 stage=B constraint=xy_fixed_z_free force_label=raw_dft energy=-15499.209488565519 free_energy=-15499.209488565519 stress="0.009581892872221477 -0.0 -0.00199240202498281 -0.0 0.01046607865565855 1.8363152303989035e-06 -0.00199240202498281 1.8363152303989035e-06 -0.0029546312057118357" pbc="T T T"
Sr       0.00003612       0.00009431      10.38265886       0.00068828      -0.00007919       0.02823765
Sr       2.75856694       1.97046093      15.26600111       0.22160775      -0.00013190       0.01720325
Ti       1.97047269       1.97057450      11.82167362      -0.16245335      -0.00008793      -0.08516831
Ti       0.78791578       3.94088573      16.69721928       0.00205688       0.00013807       0.05980720
O        0.00000902       1.97050521      11.98593031      -0.19815852      -0.00016044      -0.01888012
O        2.75885292       0.00000361      16.83535949      -0.00446781      -0.00001183       0.07080844
O        1.97049401       3.94093312      11.95524355       0.13218916      -0.00003008      -0.13249100
O        0.78828644       1.97047936      16.83078431      -0.01836565      -0.00009462       0.07386214
O        1.97043419       1.97038596      10.00995028      -0.02201841       0.00037898      -0.06586806
O        0.78825659       3.94090180      14.89049915       0.04892192       0.00007868       0.05248856
10
Lattice="3.940949890606662 0.0 0.0 0.0 3.940949890606662 0.0 0.0 0.0 26.940967945119528" Properties=species:S:1:pos:R:3:forces:R:3 tau=tau75 tau_p=7 tau_q=5 stage=B constraint=xy_fixed_z_free force_label=raw_dft energy=-15499.212803728416 free_energy=-15499.212803728416 stress="0.009211875353296099 0.0 -0.0019051770515388622 0.0 0.01073418067929679 1.8363152303989035e-06 -0.0019051770515388622 1.8363152303989035e-06 -0.0027030560191471857" pbc="T T T"
Sr       0.00003612       0.00009431      10.37733886       0.00075256      -0.00008665      -0.02803325
Sr       2.75856694       1.97046093      15.27532454       0.21028719      -0.00013344       0.02691071
Ti       1.97047269       1.97057450      11.80921286      -0.15885767      -0.00009179      -0.07272340
Ti       0.78791578       3.94088573      16.70601246       0.00181288       0.00013138       0.09645031
O        0.00000902       1.97050521      11.95626682      -0.18682535      -0.00015015       0.07863539
O        2.75885292       0.00000361      16.85238603      -0.00415362      -0.00001080       0.00474446
O        1.97049401       3.94093312      11.95679802       0.13235859      -0.00002263      -0.16461385
O        0.78828644       1.97047936      16.84610360      -0.01702147      -0.00008742       0.01532635
O        1.97043419       1.97038596       9.99945186      -0.02217422       0.00037821      -0.07313272
O        0.78825659       3.94090180      14.89642491       0.04382111       0.00007353       0.11643652
10
Lattice="3.940949890606662 0.0 0.0 0.0 3.940949890606662 0.0 0.0 0.0 26.940967945119528" Properties=species:S:1:pos:R:3:forces:R:3 tau=tau75 tau_p=7 tau_q=5 stage=B constraint=xy_fixed_z_free force_label=raw_dft energy=-15499.214691382116 free_energy=-15499.214691382116 stress="0.009086087760013774 0.0 -0.0018693689045460838 0.0 0.010753461989215979 1.8363152303989035e-06 -0.0018693689045460838 1.8363152303989035e-06 -0.0026066494695512433" pbc="T T T"
Sr       0.00003612       0.00009431      10.37464049       0.00084178      -0.00008999      -0.06350471
Sr       2.75856694       1.97046093      15.28006532       0.20516118      -0.00013344       0.03514441
Ti       1.97047269       1.97057450      11.80185965      -0.15641203      -0.00010027      -0.06000158
Ti       0.78791578       3.94088573      16.71201561       0.00179720       0.00012547       0.10262455
O        0.00000902       1.97050521      11.94461465      -0.18223259      -0.00014424       0.11005350
O        2.75885292       0.00000361      16.86063314      -0.00404100      -0.00001054      -0.01656485
O        1.97049401       3.94093312      11.95332922       0.13082776      -0.00001903      -0.16525637
O        0.78828644       1.97047936      16.85382675      -0.01642986      -0.00008305      -0.00344862
O        1.97043419       1.97038596       9.99306462      -0.02199759       0.00038104      -0.07097762
O        0.78825659       3.94090180      14.90127051       0.04248517       0.00007405       0.13193127
10
Lattice="3.940949890606662 0.0 0.0 0.0 3.940949890606662 0.0 0.0 0.0 26.940967945119528" Properties=species:S:1:pos:R:3:forces:R:3 tau=tau75 tau_p=7 tau_q=5 stage=B constraint=xy_fixed_z_free force_label=raw_dft energy=-15499.21793729204 free_energy=-15499.21793729204 stress="0.008988763052802632 0.0 -0.0018298881270925073 0.0 0.0107158175269928 1.8363152303989035e-06 -0.0018298881270925073 1.8363152303989035e-06 -0.00249463424049691" pbc="T T T"
Sr       0.00003612       0.00009431      10.37014043       0.00092560      -0.00009230      -0.10877309
Sr       2.75856694       1.97046093      15.28675535       0.19879795      -0.00013164       0.04763971
Ti       1.97047269       1.97057450      11.79133802      -0.15278601      -0.00010953      -0.04114382
Ti       0.78791578       3.94088573      16.72145488       0.00193476       0.00012341       0.10073659
O        0.00000902       1.97050521      11.93179727      -0.17687081      -0.00013961       0.13463890
O        2.75885292       0.00000361      16.87118253      -0.00390036      -0.00001028      -0.03199275
O        1.97049401       3.94093312      11.94549457       0.12751232      -0.00001388      -0.15670745
O        0.78828644       1.97047936      16.86396299      -0.01572281      -0.00008073      -0.01663761
O        1.97043419       1.97038596       9.98359167      -0.02155227       0.00038129      -0.06386415
O        0.78825659       3.94090180      14.90960225       0.04166190       0.00007328       0.13610417
10
Lattice="3.940949890606662 0.0 0.0 0.0 3.940949890606662 0.0 0.0 0.0 26.940967945119528" Properties=species:S:1:pos:R:3:forces:R:3 tau=tau75 tau_p=7 tau_q=5 stage=B constraint=xy_fixed_z_free force_label=raw_dft energy=-15499.223801209206 free_energy=-15499.223801209206 stress="0.008891438345591491 0.0 -0.0017702078821045428 0.0 0.01060012966747767 1.8363152303989035e-06 -0.0017702078821045428 1.8363152303989035e-06 -0.002337629288297804" pbc="T T T"
Sr       0.00003612       0.00009431      10.36040572       0.00098036      -0.00009719      -0.17341062
Sr       2.75856694       1.97046093      15.29901492       0.18850531      -0.00013113       0.06674789
Ti       1.97047269       1.97057450      11.77289267      -0.14641893      -0.00012264      -0.01103903
Ti       0.78791578       3.94088573      16.73910444       0.00269683       0.00012110       0.08751881
O        0.00000902       1.97050521      11.91257119      -0.16851087      -0.00013318       0.15730832
O        2.75885292       0.00000361      16.88862014      -0.00373170      -0.00000977      -0.04235635
O        1.97049401       3.94093312      11.92930838       0.12077089      -0.00000643      -0.13670684
O        0.78828644       1.97047936      16.88099188      -0.01464449      -0.00007790      -0.02463297
O        1.97043419       1.97038596       9.96644815      -0.02062925       0.00038335      -0.04822541
O        0.78825659       3.94090180      14.92596246       0.04098158       0.00007353       0.12479595
10
Lattice="3.940949890606662 0.0 0.0 0.0 3.940949890606662 0.0 0.0 0.0 26.940967945119528" Properties=species:S:1:pos:R:3:forces:R:3 tau=tau75 tau_p=7 tau_q=5 stage=B constraint=xy_fixed_z_free force_label=raw_dft energy=-15499.232162042954 free_energy=-15499.232162042954 stress="0.008831758100603526 0.0 -0.0016866555391213927 0.0 0.010410989198746582 1.8363152303989035e-06 -0.0016866555391213927 1.8363152303989035e-06 -0.00212645303680193" pbc="T T T"
Sr       0.00003612       0.00009431      10.34196647       0.00097111      -0.00010104      -0.24987523
Sr       2.75856694       1.97046093      15.31935880       0.17397190      -0.00012856       0.09210180
Ti       1.97047269       1.97057450      11.74416243      -0.13646259      -0.00013344       0.03530433
Ti       0.78791578       3.94088573      16.76794355       0.00302619       0.00010824       0.05293182
O        0.00000902       1.97050521      11.88547143      -0.15653647      -0.00012496       0.16984013
O        2.75885292       0.00000361      16.91504653      -0.00339951      -0.00000797      -0.04152897
O        1.97049401       3.94093312      11.90178323       0.11001288       0.00000231      -0.10523808
O        0.78828644       1.97047936      16.90710459      -0.01311031      -0.00007559      -0.02187803
O        1.97043419       1.97038596       9.93900658      -0.01890044       0.00038438      -0.02374542
O        0.78825659       3.94090180      14.95347636       0.04042700       0.00007662       0.09208740
10
Lattice="3.940949890606662 0.0 0.0 0.0 3.940949890606662 0.0 0.0 0.0 26.940967945119528" Properties=species:S:1:pos:R:3:forces:R:3 tau=tau75 tau_p=7 tau_q=5 stage=B constraint=xy_fixed_z_free force_label=raw_dft energy=-15499.24179378439 free_energy=-15499.24179378439 stress="0.008901538079358683 -0.0 -0.00157372215245186 -0.0 0.010196140316789911 1.8363152303989035e-06 -0.00157372215245186 1.8363152303989035e-06 -0.0018106068171733188" pbc="T T T"
Sr       0.00003612       0.00009431      10.30971466       0.00091917      -0.00010439      -0.31845735
Sr       2.75856694       1.97046093      15.35119156       0.15504986      -0.00012418       0.12107093
Ti       1.97047269       1.97057450      11.70285837      -0.12162424      -0.00015838       0.08484538
Ti       0.78791578       3.94088573      16.81120222       0.00268397       0.00011107      -0.00764183
O        0.00000902       1.97050521      11.84920695      -0.14088823      -0.00011904       0.16174939
O        2.75885292       0.00000361      16.95296625      -0.00309381      -0.00000720      -0.02227012
O        1.97049401       3.94093312      11.85914897       0.09514624       0.00001157      -0.06059833
O        0.78828644       1.97047936      16.94497651      -0.01136762      -0.00007482      -0.00153392
O        1.97043419       1.97038596       9.89820275      -0.01643989       0.00038695       0.01261640
O        0.78825659       3.94090180      14.99585173       0.03961453       0.00007842       0.03021972
10
Lattice="3.940949890606662 0.0 0.0 0.0 3.940949890606662 0.0 0.0 0.0 26.940967945119528" Properties=species:S:1:pos:R:3:forces:R:3 tau=tau75 tau_p=7 tau_q=5 stage=B constraint=xy_fixed_z_free force_label=raw_dft energy=-15499.25154484774 free_energy=-15499.25154484774 stress="0.009197184831452907 0.0 -0.0014396711406327403 0.0 0.010042807995051603 1.8363152303989035e-06 -0.0014396711406327403 1.8363152303989035e-06 -0.0014323258797111446" pbc="T T T"
Sr       0.00003612       0.00009431      10.25964845       0.00048440      -0.00009719      -0.33430820
Sr       2.75856694       1.97046093      15.39572690       0.13414114      -0.00012033       0.13720486
Ti       1.97047269       1.97057450      11.65148699      -0.10598190      -0.00017124       0.10310149
Ti       0.78791578       3.94088573      16.86704099       0.00387748       0.00010233      -0.06425110
O        0.00000902       1.97050521      11.80653483      -0.12309054      -0.00011441       0.11803523
O        2.75885292       0.00000361      17.00120990      -0.00271586      -0.00001054       0.01821524
O        1.97049401       3.94093312      11.80229767       0.07819959       0.00002211      -0.01279664
O        0.78828644       1.97047936      16.99371926      -0.00933208      -0.00008022       0.03557173
O        1.97043419       1.97038596       9.84554349      -0.01360268       0.00038952       0.05209621
O        0.78825659       3.94090180      15.05211148       0.03801993       0.00008048      -0.05286882
10
Lattice="3.940949890606662 0.0 0.0 0.0 3.940949890606662 0.0 0.0 0.0 26.940967945119528" Properties=species:S:1:pos:R:3:forces:R:3 tau=tau75 tau_p=7 tau_q=5 stage=B constraint=xy_fixed_z_free force_label=raw_dft energy=-15499.258918860654 free_energy=-15499.258918860654 stress="0.009692071786045413 0.0 -0.001302865655968022 0.0 0.010141050859877944 1.8363152303989035e-06 -0.001302865655968022 1.8363152303989035e-06 -0.0010274183714081863" pbc="T T T"
Sr       0.00003612       0.00009431      10.19711201       0.00014604      -0.00009462      -0.27282027
Sr       2.75856694       1.97046093      15.44781812       0.11473239      -0.00010722       0.13763887
Ti       1.97047269       1.97057450      11.59797645      -0.09154953      -0.00018666       0.11830186
Ti       0.78791578       3.94088573      16.92599518       0.00441484       0.00015118      -0.10476063
O        0.00000902       1.97050521      11.75981258      -0.10565203      -0.00012393       0.05729858
O        2.75885292       0.00000361      17.05424621      -0.00240630      -0.00003394       0.05344501
O        1.97049401       3.94093312      11.74328351       0.06340880       0.00002314       0.00568497
O        0.78828644       1.97047936      17.04740913      -0.00751456      -0.00009976       0.06835972
O        1.97043419       1.97038596       9.78974977      -0.01109071       0.00039698       0.05918679
O        0.78825659       3.94090180      15.11191699       0.03551079       0.00007508      -0.12233515
10
Lattice="3.940949890606662 0.0 0.0 0.0 3.940949890606662 0.0 0.0 0.0 26.940967945119528" Properties=species:S:1:pos:R:3:forces:R:3 tau=tau75 tau_p=7 tau_q=5 stage=B constraint=xy_fixed_z_free force_label=raw_dft energy=-15499.264574746789 free_energy=-15499.264574746789 stress="0.010266838453160268 -0.0 -0.0012064591063720796 -0.0 0.010480769177501742 1.8363152303989035e-06 -0.0012064591063720796 1.8363152303989035e-06 -0.000581193770421253" pbc="T T T"
Sr       0.00003612       0.00009431      10.14250374      -0.00032113      -0.00006788      -0.16192448
Sr       2.75856694       1.97046093      15.49118876       0.10164445      -0.00010747       0.12035462
Ti       1.97047269       1.97057450      11.56081095      -0.08182382      -0.00016815       0.09086459
Ti       0.78791578       3.94088573      16.96781000       0.00436908       0.00009976      -0.09083476
O        0.00000902       1.97050521      11.72405032      -0.09392574      -0.00014141       0.00693298
O        2.75885292       0.00000361      17.09558302      -0.00217258       0.00001748       0.05741865
O        1.97049401       3.94093312      11.70074455       0.05451613       0.00000694      -0.00226720
O        0.78828644       1.97047936      17.08947531      -0.00634034      -0.00010259       0.07225520
O        1.97043419       1.97038596       9.74901563      -0.00952568       0.00038592       0.05232401
O        0.78825659       3.94090180      15.15413768       0.03357989       0.00007739      -0.14512360
10
Lattice="3.940949890606662 0.0 0.0 0.0 3.940949890606662 0.0 0.0 0.0 26.940967945119528" Properties=species:S:1:pos:R:3:forces:R:3 tau=tau75 tau_p=7 tau_q=5 stage=B constraint=xy_fixed_z_free force_label=raw_dft energy=-15499.268351822926 free_energy=-15499.268351822926 stress="0.010904957995723889 0.0 -0.0011128070296217353 0.0 0.010971065344018248 1.8363152303989035e-06 -0.0011128070296217353 1.8363152303989035e-06 0.00011385154428473201" pbc="T T T"
Sr       0.00003612       0.00009431      10.08280184      -0.00043992      -0.00007251      -0.01446220
Sr       2.75856694       1.97046093      15.53913687       0.08925919      -0.00011853       0.06852041
Ti       1.97047269       1.97057450      11.52534495      -0.07327053      -0.00014424       0.03210794
Ti       0.78791578       3.94088573      17.00781938       0.00400244       0.00010387      -0.07462601
O        0.00000902       1.97050521      11.68545221      -0.08283554      -0.00015195      -0.02860249
O        2.75885292       0.00000361      17.13972103      -0.00191856      -0.00000566       0.03603478
O        1.97049401       3.94093312      11.65887294       0.04717460      -0.00000823      -0.01397575
O        0.78828644       1.97047936      17.13465394      -0.00525585      -0.00007456       0.05119503
O        1.97043419       1.97038596       9.70905564      -0.00835300       0.00038927       0.03002380
O        0.78825659       3.94090180      15.19246116       0.03163691       0.00008253      -0.08621603
10
Lattice="3.940949890606662 0.0 0.0 0.0 3.940949890606662 0.0 0.0 0.0 26.940967945119528" Properties=species:S:1:pos:R:3:forces:R:3 tau=tau75 tau_p=7 tau_q=5 stage=B constraint=xy_fixed_z_free force_label=raw_dft energy=-15499.269152926068 free_energy=-15499.269152926068 stress="0.010942602457947065 0.0 -0.001115561502467334 0.0 0.011054617687001398 1.8363152303989035e-06 -0.001115561502467334 1.8363152303989035e-06 0.0002506570289494503" pbc="T T T"
Sr       0.00003612       0.00009431      10.08044065      -0.00048645      -0.00007071       0.01601900
Sr       2.75856694       1.97046093      15.54157807       0.08922962      -0.00011801       0.03646441
Ti       1.97047269       1.97057450      11.52844410      -0.07380249      -0.00014038       0.00389316
Ti       0.78791578       3.94088573      17.00368802       0.00397724       0.00010464      -0.03901495
O        0.00000902       1.97050521      11.68544059      -0.08288594      -0.00015375      -0.01867212
O        2.75885292       0.00000361      17.14030483      -0.00189156      -0.00000771       0.01101383
O        1.97049401       3.94093312      11.66041977       0.04752221      -0.00001131      -0.01194097
O        0.78828644       1.97047936      17.13571855      -0.00520546      -0.00007173       0.02432855
O        1.97043419       1.97038596       9.71158383      -0.00841805       0.00038695       0.01487229
O        0.78825659       3.94090180      15.18770154       0.03196087       0.00008176      -0.03696295
10
Lattice="3.940949890606662 0.0 0.0 0.0 3.940949890606662 0.0 0.0 0.0 26.940967945119528" Properties=species:S:1:pos:R:3:forces:R:3 tau=tau75 tau_p=7 tau_q=5 stage=B constraint=xy_fixed_z_free force_label=raw_dft energy=-15499.269415515924 free_energy=-15499.269415515924 stress="0.010860886430194314 0.0 -0.0011339246547713228 0.0 0.011026154800930214 1.8363152303989035e-06 -0.0011339246547713228 1.8363152303989035e-06 0.00022586677333906514" pbc="T T T"
Sr       0.00003612       0.00009431      10.08864365      -0.00051422      -0.00007225       0.01578092
Sr       2.75856694       1.97046093      15.53584513       0.09113738      -0.00012033       0.01783163
Ti       1.97047269       1.97057450      11.53680166      -0.07569405      -0.00013884      -0.00344734
Ti       0.78791578       3.94088573      16.99341783       0.00416879       0.00010824      -0.00874612
O        0.00000902       1.97050521      11.69209598      -0.08473250      -0.00015349      -0.00655374
O        2.75885292       0.00000361      17.13333619      -0.00191239      -0.00000797      -0.00693941
O        1.97049401       3.94093312      11.66832950       0.04894583      -0.00001106      -0.00761972
O        0.78828644       1.97047936      17.12916988      -0.00531576      -0.00007045       0.00437730
O        1.97043419       1.97038596       9.72044975      -0.00868339       0.00038669       0.00254282
O        0.78825659       3.94090180      15.17723039       0.03260056       0.00007919      -0.00722634
