10
Lattice="3.940949890606662 0.0 0.0 0.0 3.940949890606662 0.0 0.0 0.0 26.940967945119528" Properties=species:S:1:pos:R:3:forces:R:3 tau=tau06 tau_p=0 tau_q=6 stage=A constraint=rigid_scf force_label=raw_dft energy=-15497.565796215844 free_energy=-15497.565796215844 stress="0.005194017629183299 -0.0 -1.8363152303989035e-06 -0.0 0.019731207150636216 -0.013202188348952917 -1.8363152303989035e-06 -0.013202188348952917 -0.032491761686678194" pbc="T T T"
Sr       0.00003626       0.00009419      10.75260867      -0.00007148      -0.00461539       0.28318053
Sr       3.94085176       2.36455575      14.64522241       0.00008896       0.66081671       4.62412775
Ti       1.97047258       1.97057465      12.38212169      -0.00007919      -0.34082775      -2.29899174
Ti       1.97020066       0.39403075      16.28444791      -0.00027254       0.14867610       0.31359000
O        0.00000906       1.97050529      12.45001441      -0.00004937      -0.22086959      -1.50543721
O        0.00018798       0.39409854      16.39256827       0.00007071       0.04577284      -0.10050802
O        1.97049386       3.94093294      12.44909065      -0.00005014      -1.55234339      -3.63357375
O        1.97057150       2.36457427      16.37955485       0.00038258      -0.01647486      -0.26113461
O        1.97043435       1.97038588      10.49176941       0.00009744      -0.20165676       0.28002887
O        1.97054155       0.39404691      14.44792112      -0.00011699       1.48152209       2.29871844
