10
Lattice="3.940949890606662 0.0 0.0 0.0 3.940949890606662 0.0 0.0 0.0 26.940967945119528" Properties=species:S:1:pos:R:3:forces:R:3 tau=tau79 tau_p=7 tau_q=9 stage=B constraint=xy_fixed_z_free force_label=raw_dft energy=-15498.575267671602 free_energy=-15498.575267671602 stress="0.015077066199190196 0.0012633848785144456 -0.01622200874534391 0.0012633848785144456 0.007179074393244512 -0.003253950588266857 -0.01622200874534391 -0.003253950588266857 -0.016871146179289923" pbc="T T T"
Sr       0.00003626       0.00009419      10.75260867      -0.00603001       0.00338949       0.28815664
Sr       2.75856679       3.54684071      14.64522241       0.90392094       0.52910655       3.06294388
Ti       1.97047258       1.97057465      12.38212169      -0.62027452      -0.75523661      -1.57483334
Ti       0.78791569       1.57631572      16.28444791       0.17170958       0.01558808       0.03905814
O        0.00000906       1.97050529      12.45001441      -1.94643539       0.60683485      -2.07774472
O        2.75885291       1.57638350      16.39256827      -0.01376209      -0.04775927      -0.18357548
O        1.97049386       3.94093294      12.44909065       0.04571679      -0.31484881      -0.77388328
O        0.78828653       3.54685924      16.37955485       0.04973053       0.00408163      -0.03117308
O        1.97043435       1.97038588      10.49176941      -0.28404391      -0.08840173       0.25455104
O        0.78825658       1.57633188      14.44792112       1.69946808       0.04724582       0.99650045
10
Lattice="3.940949890606662 0.0 0.0 0.0 3.940949890606662 0.0 0.0 0.0 26.940967945119528" Properties=species:S:1:pos:R:3:forces:R:3 tau=tau79 tau_p=7 tau_q=9 stage=B constraint=xy_fixed_z_free force_label=raw_dft energy=-15498.889047581235 free_energy=-15498.889047581235 stress="0.012630176154683658 0.0010705717793225607 -0.013913760500732491 0.0010705717793225607 0.005842236905514111 -0.0031814161366661 -0.013913760500732491 -0.0031814161366661 -0.017122721365854576" pbc="T T T"
Sr       0.00003612       0.00009431      10.75853947      -0.00516612       0.00362706       0.26772152
Sr       2.75856694       3.54684090      14.70826335       0.67403809       0.47407671       2.18303628
Ti       1.97047269       1.97057450      12.34970918      -0.56318344      -0.62432195      -0.97059170
Ti       0.78791578       1.57631578      16.28525180       0.15343778       0.01517696       0.18799084
O        0.00000902       1.97050521      12.40725091      -1.64770123       0.53133030      -1.65186513
O        2.75885292       1.57638358      16.38879003      -0.01691606      -0.04464926      -0.03747589
O        1.97049401       3.94093312      12.43316279       0.15693345      -0.35290191      -0.43029417
O        0.78828644       3.54685933      16.37891321       0.04403888       0.00256442       0.10351441
O        1.97043419       1.97038596      10.49700848      -0.26233711      -0.08540279      -0.22739711
O        0.78825659       1.57633185      14.46843074       1.46685601       0.08050073       0.57536069
10
Lattice="3.940949890606662 0.0 0.0 0.0 3.940949890606662 0.0 0.0 0.0 26.940967945119528" Properties=species:S:1:pos:R:3:forces:R:3 tau=tau79 tau_p=7 tau_q=9 stage=B constraint=xy_fixed_z_free force_label=raw_dft energy=-15499.1239380155 free_energy=-15499.1239380155 stress="0.009720534672116594 0.0009181576151994518 -0.011779962203008965 0.0009181576151994518 0.004160172154468716 -0.0031134724731413407 -0.011779962203008965 -0.0031134724731413407 -0.01686104644552273" pbc="T T T"
Sr       0.00003612       0.00009431      10.76689807      -0.00299971       0.00454288       0.12425499
Sr       2.75856694       3.54684090      14.77760806       0.48793367       0.42143209       1.29227913
Ti       1.97047269       1.97057450      12.31852340      -0.51619113      -0.51359457      -0.56869845
Ti       0.78791578       1.57631578      16.29084925       0.13470935       0.01530243       0.20139065
O        0.00000902       1.97050521      12.35517847      -1.36858870       0.45270185      -1.16045841
O        2.75885292       1.57638358      16.38738150      -0.01836076      -0.04084480       0.15753406
O        1.97049401       3.94093312      12.41921108       0.23918356      -0.37735335      -0.13735913
O        0.78828644       3.54685933      16.38190765       0.03827627       0.00118965       0.27720837
O        1.97043419       1.97038596      10.49074020      -0.23857986      -0.07936353      -0.51291554
O        0.78825659       1.57633185      14.48702229       1.24461730       0.11598735       0.32676459
10
Lattice="3.940949890606662 0.0 0.0 0.0 3.940949890606662 0.0 0.0 0.0 26.940967945119528" Properties=species:S:1:pos:R:3:forces:R:3 tau=tau79 tau_p=7 tau_q=9 stage=B constraint=xy_fixed_z_free force_label=raw_dft energy=-15499.311573160549 free_energy=-15499.311573160549 stress="0.004949787703540244 0.000760234505385146 -0.00909159670570497 0.000760234505385146 0.0011642238560729049 -0.0029904393527046143 -0.00909159670570497 -0.0029904393527046143 -0.016274343729410282" pbc="T T T"
Sr       0.00003612       0.00009431      10.77762858       0.00138557       0.00625087      -0.23627075
Sr       2.75856694       3.54684090      14.88162513       0.29341455       0.35113736       0.10219621
Ti       1.97047269       1.97057450      12.27156862      -0.46000095      -0.38669777      -0.25292353
Ti       0.78791578       1.57631578      16.30303503       0.10817120       0.01635684       0.21972519
O        0.00000902       1.97050521      12.26893095      -1.01635117       0.34289440      -0.40807649
O        2.75885292       1.57638358      16.39350232      -0.01877625      -0.03490041       0.45392338
O        1.97049401       3.94093312      12.40348011       0.30673364      -0.38778329       0.14148626
O        0.78828644       3.54685933      16.39625153       0.03078510      -0.00114466       0.52604436
O        1.97043419       1.97038596      10.46464020      -0.20186245      -0.06666099      -0.63007968
O        0.78825659       1.57633185      14.51465748       0.95650103       0.16054765       0.08397480
10
Lattice="3.940949890606662 0.0 0.0 0.0 3.940949890606662 0.0 0.0 0.0 26.940967945119528" Properties=species:S:1:pos:R:3:forces:R:3 tau=tau79 tau_p=7 tau_q=9 stage=B constraint=xy_fixed_z_free force_label=raw_dft energy=-15499.35923648447 free_energy=-15499.35923648447 stress="0.0033393392464804057 0.0007078995213187773 -0.008046733339607995 0.0007078995213187773 0.00036267225800378346 -0.0029344317381774475 -0.008046733339607995 -0.0029344317381774475 -0.015082575144881392" pbc="T T T"
Sr       0.00003612       0.00009431      10.77505739       0.00331158       0.00683913      -0.42525404
Sr       2.75856694       3.54684090      14.92540254       0.23128667       0.32197899      -0.29645514
Ti       1.97047269       1.97057450      12.24539005      -0.43941027      -0.34086426      -0.20968863
Ti       0.78791578       1.57631578      16.31318353       0.09820277       0.01708858       0.26481745
O        0.00000902       1.97050521      12.22487036      -0.87846367       0.29591983      -0.09156675
O        2.75885292       1.57638358      16.40766482      -0.01826100      -0.03194364       0.51792405
O        1.97049401       3.94093312      12.40034794       0.32129482      -0.38683327       0.15774489
O        0.78828644       3.54685933      16.41541592       0.02777049      -0.00233456       0.55904730
O        1.97043419       1.97038596      10.43961152      -0.18356160      -0.05908061      -0.50572314
O        0.78825659       1.57633185      14.52837589       0.83783022       0.17922980       0.02915400
10
Lattice="3.940949890606662 0.0 0.0 0.0 3.940949890606662 0.0 0.0 0.0 26.940967945119528" Properties=species:S:1:pos:R:3:forces:R:3 tau=tau79 tau_p=7 tau_q=9 stage=B constraint=xy_fixed_z_free force_label=raw_dft energy=-15499.411543431046 free_energy=-15499.411543431046 stress="0.002853633868039896 0.0006592371677132063 -0.007078995213187773 0.0006592371677132063 0.0008346052722163016 -0.0028793422812654805 -0.007078995213187773 -0.0028793422812654805 -0.012572332224926092" pbc="T T T"
Sr       0.00003612       0.00009431      10.75865954       0.00482416       0.00701680      -0.56067661
Sr       2.75856694       3.54684090      14.96365815       0.18076681       0.29362127      -0.51971919
Ti       1.97047269       1.97057450      12.20980087      -0.42022059      -0.29908409      -0.13186237
Ti       0.78791578       1.57631578      16.33197182       0.09111141       0.01847338       0.30641610
O        0.00000902       1.97050521      12.17596011      -0.74988795       0.24969114       0.15395329
O        2.75885292       1.57638358      16.43772019      -0.01693406      -0.02862383       0.47253996
O        1.97049401       3.94093312      12.40047394       0.32851268      -0.38414595       0.04542754
O        0.78828644       3.54685933      16.45181790       0.02477335      -0.00364197       0.47496400
O        1.97043419       1.97038596      10.40060937      -0.16281639      -0.05010592      -0.30014518
O        0.78825659       1.57633185      14.54464808       0.71987058       0.19679918       0.05910272
10
Lattice="3.940949890606662 0.0 0.0 0.0 3.940949890606662 0.0 0.0 0.0 26.940967945119528" Properties=species:S:1:pos:R:3:forces:R:3 tau=tau79 tau_p=7 tau_q=9 stage=B constraint=xy_fixed_z_free force_label=raw_dft energy=-15499.46898434942 free_energy=-15499.46898434942 stress="0.003888397500369678 0.0006059840260316382 -0.006258162305199462 0.0006059840260316382 0.003017984081160598 -0.0028325162428903083 -0.006258162305199462 -0.0028325162428903083 -0.008728006290085988" pbc="T T T"
Sr       0.00003612       0.00009431      10.72358799       0.00561195       0.00658537      -0.58883970
Sr       2.75856694       3.54684090      14.99077245       0.14443840       0.26955086      -0.50666802
Ti       1.97047269       1.97057450      12.16673660      -0.40279236      -0.26389520      -0.01474296
Ti       0.78791578       1.57631578      16.36183480       0.08597332       0.02012042       0.33824430
O        0.00000902       1.97050521      12.12668148      -0.63943310       0.20826347       0.27827435
O        2.75885292       1.57638358      16.48455953      -0.01491651      -0.02541278       0.30260753
O        1.97049401       3.94093312      12.40100621       0.32847488      -0.37858286      -0.17784886
O        0.78828644       3.54685933      16.50561918       0.02209606      -0.00488947       0.26654035
O        1.97043419       1.97038596      10.34938717      -0.14126643      -0.04102864      -0.05466654
O        0.78825659       1.57633185      14.56513455       0.61181431       0.20928883       0.15709955
10
Lattice="3.940949890606662 0.0 0.0 0.0 3.940949890606662 0.0 0.0 0.0 26.940967945119528" Properties=species:S:1:pos:R:3:forces:R:3 tau=tau79 tau_p=7 tau_q=9 stage=B constraint=xy_fixed_z_free force_label=raw_dft energy=-15499.516966726816 free_energy=-15499.516966726816 stress="0.006401394893170578 0.0005444674658132749 -0.005708185893694991 0.0005444674658132749 0.0066906145419584045 -0.002804971514434325 -0.005708185893694991 -0.002804971514434325 -0.004218934241841481" pbc="T T T"
Sr       0.00003612       0.00009431      10.67074567       0.00513835       0.00555101      -0.46077871
Sr       2.75856694       3.54684090      15.00008959       0.12621005       0.25467471      -0.26871319
Ti       1.97047269       1.97057450      12.12564857      -0.38978644      -0.24175620       0.08361690
Ti       0.78791578       1.57631578      16.40175542       0.08371923       0.02184538       0.31904099
O        0.00000902       1.97050521      12.08778572      -0.56045138       0.17800801       0.24955796
O        2.75885292       1.57638358      16.54003835      -0.01276090      -0.02286996       0.06735519
O        1.97049401       3.94093312      12.39602653       0.32086236      -0.36854810      -0.41612379
O        0.78828644       3.54685933      16.56673452       0.01981703      -0.00559164       0.00677151
O        1.97043419       1.97038596      10.29645181      -0.12307562      -0.03385706       0.15366532
O        0.78825659       1.57633185      14.59004377       0.53032731       0.21254384       0.26560781
10
Lattice="3.940949890606662 0.0 0.0 0.0 3.940949890606662 0.0 0.0 0.0 26.940967945119528" Properties=species:S:1:pos:R:3:forces:R:3 tau=tau79 tau_p=7 tau_q=9 stage=B constraint=xy_fixed_z_free force_label=raw_dft energy=-15499.542484882322 free_energy=-15499.542484882322 stress="0.008637108686181241 0.000493968796977305 -0.005557608044802281 0.000493968796977305 0.009387243457799194 -0.0028068078296647238 -0.005557608044802281 -0.0028068078296647238 -0.001595757935216647" pbc="T T T"
Sr       0.00003612       0.00009431      10.62830644       0.00378646       0.00448709      -0.26578316
Sr       2.75856694       3.54684090      14.99407987       0.12625711       0.25239363      -0.02392386
Ti       1.97047269       1.97057450      12.10694848      -0.38729915      -0.23814175       0.08922396
Ti       0.78791578       1.57631578      16.43270507       0.08571955       0.02325717       0.22712020
O        0.00000902       1.97050521      12.07514575      -0.53085696       0.16672756       0.15321564
O        2.75885292       1.57638358      16.57355347      -0.01134654      -0.02168803      -0.05542321
O        1.97049401       3.94093312      12.38300713       0.31077027      -0.35725684      -0.49037519
O        0.78828644       3.54685933      16.60162427       0.01828543      -0.00564023      -0.11624960
O        1.97043419       1.97038596      10.26988494      -0.11452491      -0.03135203       0.19826111
O        0.78825659       1.57633185      14.61006454       0.49920873       0.20721343       0.28393412
10
Lattice="3.940949890606662 0.0 0.0 0.0 3.940949890606662 0.0 0.0 0.0 26.940967945119528" Properties=species:S:1:pos:R:3:forces:R:3 tau=tau79 tau_p=7 tau_q=9 stage=B constraint=xy_fixed_z_free force_label=raw_dft energy=-15499.561005766524 free_energy=-15499.561005766524 stress="0.010479851019886542 0.00043704302483493903 -0.0055107820064271085 0.00043704302483493903 0.011207031851124507 -0.002809562302510322 -0.0055107820064271085 -0.002809562302510322 -7.98797125223523e-05" pbc="T T T"
Sr       0.00003612       0.00009431      10.59006859       0.00231528       0.00325425      -0.04630583
Sr       2.75856694       3.54684090      14.98642317       0.13113706       0.25356862       0.17754290
Ti       1.97047269       1.97057450      12.09755392      -0.38679136      -0.23955894       0.02754397
Ti       0.78791578       1.57631578      16.46138964       0.08753963       0.02418508       0.09423324
O        0.00000902       1.97050521      12.07243427      -0.51437824       0.16128376       0.06524688
O        2.75885292       1.57638358      16.59631359      -0.01000133      -0.02090590      -0.09347605
O        1.97049401       3.94093312      12.35983594       0.29841020      -0.34198912      -0.44354049
O        0.78828644       3.54685933      16.62344068       0.01668543      -0.00541911      -0.14471068
O        1.97043419       1.97038596      10.25601307      -0.10850415      -0.03079282       0.14054293
O        0.78825659       1.57633185      14.63184710       0.48358722       0.19637443       0.22292313
10
Lattice="3.940949890606662 0.0 0.0 0.0 3.940949890606662 0.0 0.0 0.0 26.940967945119528" Properties=species:S:1:pos:R:3:forces:R:3 tau=tau79 tau_p=7 tau_q=9 stage=B constraint=xy_fixed_z_free force_label=raw_dft energy=-15499.572898773955 free_energy=-15499.572898773955 stress="0.011317210764948443 0.00038470804076857026 -0.00542539334821356 0.00038470804076857026 0.011724872746096997 -0.0027801812588239398 -0.00542539334821356 -0.0027801812588239398 0.00027636544217503496" pbc="T T T"
Sr       0.00003612       0.00009431      10.56490349       0.00151772       0.00238316       0.10264512
Sr       2.75856694       3.54684090      14.98776253       0.13218093       0.25198739       0.25020459
Ti       1.97047269       1.97057450      12.09189181      -0.38222431      -0.23830707      -0.04755281
Ti       0.78791578       1.57631578      16.48237176       0.08732906       0.02392411      -0.01054769
O        0.00000902       1.97050521      12.07180739      -0.49969339       0.15756620       0.03712853
O        2.75885292       1.57638358      16.60820355      -0.00912767      -0.02011374      -0.06035845
O        1.97049401       3.94093312      12.33238401       0.28687135      -0.32532657      -0.32550809
O        0.78828644       3.54685933      16.63333390       0.01499776      -0.00507716      -0.10178355
O        1.97043419       1.97038596      10.25065037      -0.10353138      -0.03099156       0.03297311
O        0.78825659       1.57633185      14.65201115       0.47168019       0.18395523       0.12279923
10
Lattice="3.940949890606662 0.0 0.0 0.0 3.940949890606662 0.0 0.0 0.0 26.940967945119528" Properties=species:S:1:pos:R:3:forces:R:3 tau=tau79 tau_p=7 tau_q=9 stage=B constraint=xy_fixed_z_free force_label=raw_dft energy=-15499.582309286838 free_energy=-15499.582309286838 stress="0.011380563640397204 0.00033696384477819875 -0.005219726042408883 0.00033696384477819875 0.011398008635085992 -0.0027003015463015877 -0.005219726042408883 -0.0027003015463015877 2.3872097995185745e-05" pbc="T T T"
Sr       0.00003612       0.00009431      10.54764545       0.00127218       0.00181880       0.17663273
Sr       2.75856694       3.54684090      15.00130783       0.12676541       0.24376449       0.21326761
Ti       1.97047269       1.97057450      12.08269028      -0.37007739      -0.23003866      -0.10375867
Ti       0.78791578       1.57631578      16.49998634       0.08484255       0.02298258      -0.07197829
O        0.00000902       1.97050521      12.06772097      -0.47767343       0.15191620       0.05620663
O        2.75885292       1.57638358      16.61733636      -0.00863968      -0.01901999       0.00591379
O        1.97049401       3.94093312      12.30049351       0.27437142      -0.30584403      -0.18170912
O        0.78828644       3.54685933      16.64015156       0.01305041      -0.00475140      -0.02859812
O        1.97043419       1.97038596      10.24494804      -0.09720750      -0.03091726      -0.07794556
O        0.78825659       1.57633185      14.67303962       0.45329603       0.17008902       0.01196926
10
Lattice="3.940949890606662 0.0 0.0 0.0 3.940949890606662 0.0 0.0 0.0 26.940967945119528" Properties=species:S:1:pos:R:3:forces:R:3 tau=tau79 tau_p=7 tau_q=9 stage=B constraint=xy_fixed_z_free force_label=raw_dft energy=-15499.588989137348 free_energy=-15499.588989137348 stress="0.010909548783799886 0.0003020738554006196 -0.004930506393621055 0.0003020738554006196 0.010643283075392045 -0.0025800228987104593 -0.004930506393621055 -0.0025800228987104593 -0.00039388961692056473" pbc="T T T"
Sr       0.00003612       0.00009431      10.53821448       0.00158046       0.00161362       0.16325811
Sr       2.75856694       3.54684090      15.02378453       0.11673014       0.22979517       0.10435953
Ti       1.97047269       1.97057450      12.06816151      -0.35166341      -0.21618967      -0.11776732
Ti       0.78791578       1.57631578      16.51344785       0.08076941       0.02170808      -0.07247168
O        0.00000902       1.97050521      12.05970435      -0.45154536       0.14469809       0.09421910
O        2.75885292       1.57638358      16.62713322      -0.00855483      -0.01765011       0.06362298
O        1.97049401       3.94093312      12.27077104       0.26182392      -0.28691634      -0.07015769
O        0.78828644       3.54685933      16.64795963       0.01118944      -0.00450792       0.03206243
O        1.97043419       1.97038596      10.23470081      -0.09000198      -0.03006442      -0.13444993
O        0.78825659       1.57633185      14.69144254       0.42967222       0.15751349      -0.06267604
10
Lattice="3.940949890606662 0.0 0.0 0.0 3.940949890606662 0.0 0.0 0.0 26.940967945119528" Properties=species:S:1:pos:R:3:forces:R:3 tau=tau79 tau_p=7 tau_q=9 stage=B constraint=xy_fixed_z_free force_label=raw_dft energy=-15499.593157241074 free_energy=-15499.593157241074 stress="0.010420170774898577 0.00027820175740543384 -0.004640368587218029 0.00027820175740543384 0.010006081690443624 -0.0024514808325825357 -0.004640368587218029 -0.0024514808325825357 -0.0004958051122077039" pbc="T T T"
Sr       0.00003612       0.00009431      10.53221157       0.00208594       0.00165322       0.10358795
Sr       2.75856694       3.54684090      15.04699931       0.10644341       0.21449505      -0.00280096
Ti       1.97047269       1.97057450      12.04981589      -0.33184843      -0.20115591      -0.09518327
Ti       0.78791578       1.57631578      16.52465697       0.07640753       0.02033845      -0.04073244
O        0.00000902       1.97050521      12.05052351      -0.42744333       0.13754065       0.11329900
O        2.75885292       1.57638358      16.64016629      -0.00857206      -0.01623035       0.08277898
O        1.97049401       3.94093312      12.24669998       0.25028687      -0.27097010      -0.01665381
O        0.78828644       3.54685933      16.65941520       0.00970771      -0.00430840       0.05255026
O        1.97043419       1.97038596      10.21906621      -0.08280572      -0.02860327      -0.11891172
O        0.78825659       1.57633185      14.70576503       0.40573782       0.14724039      -0.07793425
10
Lattice="3.940949890606662 0.0 0.0 0.0 3.940949890606662 0.0 0.0 0.0 26.940967945119528" Properties=species:S:1:pos:R:3:forces:R:3 tau=tau79 tau_p=7 tau_q=9 stage=B constraint=xy_fixed_z_free force_label=raw_dft energy=-15499.595418098903 free_energy=-15499.595418098903 stress="0.010260411349853874 0.00026351123556224264 -0.004436537596643751 0.00026351123556224264 0.00974624308534218 -0.0023504834949105964 -0.004436537596643751 -0.0023504834949105964 -0.00021943967003266895" pbc="T T T"
Sr       0.00003612       0.00009431      10.52751593       0.00251197       0.00175555       0.04757904
Sr       2.75856694       3.54684090      15.06273480       0.09962176       0.20287444      -0.05455804
Ti       1.97047269       1.97057450      12.03312045      -0.31645472      -0.19014876      -0.05571529
Ti       0.78791578       1.57631578      16.53360729       0.07371970       0.01944140      -0.00775008
O        0.00000902       1.97050521      12.04493258      -0.41220903       0.13280288       0.09576485
O        2.75885292       1.57638358      16.65386865      -0.00864431      -0.01510523       0.06362838
O        1.97049401       3.94093312      12.22979538       0.24141039      -0.25988248      -0.00838720
O        0.78828644       3.54685933      16.67161308       0.00871501      -0.00415130       0.03640322
O        1.97043419       1.97038596      10.20309938      -0.07724751      -0.02727966      -0.06463728
O        0.78825659       1.57633185      14.71503244       0.38857699       0.13969292      -0.05232761
10
Lattice="3.940949890606662 0.0 0.0 0.0 3.940949890606662 0.0 0.0 0.0 26.940967945119528" Properties=species:S:1:pos:R:3:forces:R:3 tau=tau79 tau_p=7 tau_q=9 stage=B constraint=xy_fixed_z_free force_label=raw_dft energy=-15499.59645947856 free_energy=-15499.59645947856 stress="0.010392626046442595 0.00025708413225584645 -0.004350230780815002 0.00025708413225584645 0.009740734139650983 -0.0022935577227682306 -0.004350230780815002 -0.0022935577227682306 0.00014690521843191228" pbc="T T T"
Sr       0.00003612       0.00009431      10.52490858       0.00276085       0.00181880       0.01765679
Sr       2.75856694       3.54684090      15.06851710       0.09710851       0.19687631      -0.05342907
Ti       1.97047269       1.97057450      12.02284194      -0.30779473      -0.18486540      -0.01897191
Ti       0.78791578       1.57631578      16.53904369       0.07290466       0.01895674       0.00763823
O        0.00000902       1.97050521      12.04518808      -0.40791426       0.13145973       0.05492545
O        2.75885292       1.57638358      16.66362229      -0.00872710      -0.01446683       0.03167728
O        1.97049401       3.94093312      12.21970130       0.23609566      -0.25390261      -0.01397215
O        0.78828644       3.54685933      16.67969857       0.00818279      -0.00404383       0.01012989
O        1.97043419       1.97038596      10.19259117      -0.07414239      -0.02662686      -0.01601592
O        0.78825659       1.57633185      14.71920724       0.38152600       0.13479368      -0.01963860
10
Lattice="3.940949890606662 0.0 0.0 0.0 3.940949890606662 0.0 0.0 0.0 26.940967945119528" Properties=species:S:1:pos:R:3:forces:R:3 tau=tau79 tau_p=7 tau_q=9 stage=B constraint=xy_fixed_z_free force_label=raw_dft energy=-15499.596874724279 free_energy=-15499.596874724279 stress="0.010581766515173681 0.00025616597464064704 -0.0043667576178885925 0.00025616597464064704 0.009771951498567764 -0.002280703516155438 -0.0043667576178885925 -0.002280703516155438 0.0003204370077046086" pbc="T T T"
Sr       0.00003612       0.00009431      10.52590006       0.00286627       0.00189516       0.00897649
Sr       2.75856694       3.54684090      15.06643307       0.09794335       0.19618751      -0.02966667
Ti       1.97047269       1.97057450      12.02086409      -0.30613174      -0.18490757      -0.00101816
Ti       0.78791578       1.57631578      16.53964194       0.07344510       0.01881919       0.00840699
O        0.00000902       1.97050521      12.04981321      -0.41244788       0.13298697       0.01810031
O        2.75885292       1.57638358      16.66632494      -0.00879986      -0.01432387       0.01015303
O        1.97049401       3.94093312      12.21651502       0.23469698      -0.25274973      -0.01443212
O        0.78828644       3.54685933      16.68088627       0.00807815      -0.00397467      -0.00495040
O        1.97043419       1.97038596      10.19031476      -0.07359063      -0.02671453       0.00635525
O        0.78825659       1.57633185      14.71862660       0.38394026       0.13278128      -0.00192473
10
Lattice="3.940949890606662 0.0 0.0 0.0 3.940949890606662 0.0 0.0 0.0 26.940967945119528" Properties=species:S:1:pos:R:3:forces:R:3 tau=tau79 tau_p=7 tau_q=9 stage=B constraint=xy_fixed_z_free force_label=raw_dft energy=-15499.597036223842 free_energy=-15499.597036223842 stress="0.010698372532304011 0.00025983860510144484 -0.004425519705261357 0.00025983860510144484 0.009749915715802977 -0.0022889669346922333 -0.004425519705261357 -0.0022889669346922333 0.0003039101706310185" pbc="T T T"
Sr       0.00003612       0.00009431      10.52917682       0.00290226       0.00197692       0.00675609
Sr       2.75856694       3.54684090      15.06163175       0.09998969       0.19796569      -0.00767577
Ti       1.97047269       1.97057450      12.02339289      -0.30793691      -0.18726501       0.00325193
Ti       0.78791578       1.57631578      16.53739792       0.07442881       0.01879219       0.00375381
O        0.00000902       1.97050521      12.05535563      -0.42014551       0.13557530      -0.00424438
O        2.75885292       1.57638358      16.66460168      -0.00888110      -0.01443880       0.00168536
O        1.97049401       3.94093312      12.21717942       0.23543437      -0.25401548      -0.00878392
O        0.78828644       3.54685933      16.67795227       0.00818408      -0.00393302      -0.00783775
O        1.97043419       1.97038596      10.19283437      -0.07437327      -0.02715162       0.00950125
O        0.78825659       1.57633185      14.71579720       0.39039733       0.13249357       0.00359312
