Sr Ti O
 1.0000000000000000
     3.9409498906066620    0.0000000000000000    0.0000000000000000
     0.0000000000000000    3.9409498906066620    0.0000000000000000
     0.0000000000000000    0.0000000000000000   26.9409679451195281
 Sr  Ti  O
   2   2   6
Cartesian
  0.0000288315846782  0.0000901641903574  9.8920291366297430
  1.9703689264183959  1.9704550878591391 15.7351244708733233
  1.9704754734119516  1.9705654317906902 11.3410460859379665
  3.9407040666753561  3.9408912153450286 17.1880814015677714
  0.0000076679864430  1.9704978043888728 11.4837989098639603
  1.9706398225594755  0.0000028831550914 17.3271780533691881
  1.9704924583333316  3.9409337631365746 11.4837819989328729
  0.0001076644408679  1.9704761840218452 17.3279386023509936
  1.9704416023835956  1.9704059377935048  9.5245966606660186
  0.0000581926059046  3.9409060684188955 15.3717446451925639
