10
Lattice="3.940949890606662 0.0 0.0 0.0 3.940949890606662 0.0 0.0 0.0 26.940967945119528" Properties=species:S:1:pos:R:3:forces:R:3 tau=tau55 tau_p=5 tau_q=5 stage=C constraint=fixed_layer_xy_centroids force_label=raw_dft projected_fmax_eV_A=0.01699261169866835 energy=-15499.229930165251 pbc="T T T"
Sr       0.00003612       0.00009431       9.89134995      -0.00014450      -0.00007688       0.01420509
Sr       1.97037695       1.97046093      15.73594953      -0.00018795      -0.00012238      -0.01699114
Ti       1.97047269       1.97057450      11.34108805       0.00005965      -0.00018178       0.00107832
Ti       3.94067571       3.94088573      17.18736001       0.00058544       0.00012624       0.01550375
O        0.00000902       1.97050521      11.48411361      -0.00002674      -0.00014732      -0.00691575
O        1.97066294       0.00000361      17.32737737      -0.00047334      -0.00000771      -0.00470229
O        1.97049401       3.94093312      11.48409214      -0.00002725       0.00000977      -0.00681831
O        0.00009646       1.97047936      17.32835166       0.00024091      -0.00006608      -0.00884588
O        1.97043419       1.97038596       9.52467304       0.00014887       0.00038387      -0.00263461
O        0.00006661       3.94090180      15.37096462      -0.00017509       0.00008253       0.01612107
10
Lattice="3.940949890606662 0.0 0.0 0.0 3.940949890606662 0.0 0.0 0.0 26.940967945119528" Properties=species:S:1:pos:R:3:forces:R:3 tau=tau55 tau_p=5 tau_q=5 stage=C constraint=fixed_layer_xy_centroids force_label=raw_dft projected_fmax_eV_A=0.016486292796144553 energy=-15499.229933158504 pbc="T T T"
Sr       0.00003575       0.00009412       9.89138546      -0.00013010      -0.00007302       0.01308486
Sr       1.97037649       1.97046062      15.73590705      -0.00017561      -0.00011519      -0.01576575
Ti       1.97047283       1.97057406      11.34109074       0.00005862      -0.00016686       0.00028565
Ti       3.94067718       3.94088604      17.18739877       0.00051473       0.00010619       0.01503041
O        0.00000895       1.97050485      11.48409632      -0.00002443      -0.00015041      -0.00675789
O        1.97066176       0.00000358      17.32736561      -0.00045534      -0.00001286      -0.00445829
O        1.97049394       3.94093315      11.48407509      -0.00001877       0.00000411      -0.00667510
O        0.00009707       1.97047919      17.32832955       0.00024091      -0.00006762      -0.00855586
O        1.97043456       1.97038692       9.52466645       0.00014450       0.00039029      -0.00267343
O        0.00006618       3.94090200      15.37100492      -0.00015452       0.00008510       0.01648540
10
Lattice="3.940949890606662 0.0 0.0 0.0 3.940949890606662 0.0 0.0 0.0 26.940967945119528" Properties=species:S:1:pos:R:3:forces:R:3 tau=tau55 tau_p=5 tau_q=5 stage=C constraint=fixed_layer_xy_centroids force_label=raw_dft projected_fmax_eV_A=0.015642527013920406 energy=-15499.229938736837 pbc="T T T"
Sr       0.00003505       0.00009375       9.89145353      -0.00012984      -0.00007225       0.01326586
Sr       1.97037560       1.97046003      15.73582532      -0.00016506      -0.00010979      -0.01564131
Ti       1.97047311       1.97057319      11.34109396       0.00005451      -0.00017432      -0.00050831
Ti       3.94067994       3.94088661      17.18747513       0.00053376       0.00009822       0.01419635
O        0.00000880       1.97050411      11.48406211      -0.00002005      -0.00013884      -0.00635242
O        1.97065946       0.00000353      17.32734273      -0.00044326      -0.00000951      -0.00415979
O        1.97049380       3.94093319      11.48404133      -0.00002597       0.00001028      -0.00628352
O        0.00009830       1.97047885      17.32828604       0.00021572      -0.00005914      -0.00816197
O        1.97043527       1.97038886       9.52465315       0.00014115       0.00037050      -0.00162057
O        0.00006538       3.94090242      15.37108668      -0.00016121       0.00008485       0.01526567
10
Lattice="3.940949890606662 0.0 0.0 0.0 3.940949890606662 0.0 0.0 0.0 26.940967945119528" Properties=species:S:1:pos:R:3:forces:R:3 tau=tau55 tau_p=5 tau_q=5 stage=C constraint=fixed_layer_xy_centroids force_label=raw_dft projected_fmax_eV_A=0.014388011189671498 energy=-15499.229944995453 pbc="T T T"
Sr       0.00003401       0.00009320       9.89155499      -0.00011673      -0.00007945       0.01174351
Sr       1.97037432       1.97045915      15.73570436      -0.00013113      -0.00010027      -0.01438712
Ti       1.97047351       1.97057189      11.34109531       0.00004602      -0.00015170      -0.00130715
Ti       3.94068405       3.94088742      17.18758687       0.00049674       0.00009205       0.01211761
O        0.00000859       1.97050302      11.48401207      -0.00002108      -0.00013807      -0.00542477
O        1.97065606       0.00000344      17.32730953      -0.00042115      -0.00001748      -0.00322725
O        1.97049359       3.94093326      11.48399190      -0.00002468       0.00001286      -0.00533838
O        0.00010007       1.97047837      17.32822214       0.00018898      -0.00006402      -0.00711347
O        1.97043633       1.97039174       9.52463626       0.00013935       0.00036844      -0.00067749
O        0.00006418       3.94090305      15.37120653      -0.00015658       0.00007790       0.01361425
10
Lattice="3.940949890606662 0.0 0.0 0.0 3.940949890606662 0.0 0.0 0.0 26.940967945119528" Properties=species:S:1:pos:R:3:forces:R:3 tau=tau55 tau_p=5 tau_q=5 stage=C constraint=fixed_layer_xy_centroids force_label=raw_dft projected_fmax_eV_A=0.014565119832837202 energy=-15499.229953294927 pbc="T T T"
Sr       0.00003266       0.00009243       9.89168603      -0.00015041      -0.00008150       0.01204639
Sr       1.97037273       1.97045804      15.73554683      -0.00012058      -0.00008922      -0.01456427
Ti       1.97047401       1.97057019      11.34109211       0.00006942      -0.00020286      -0.00331621
Ti       3.94068945       3.94088847      17.18772843       0.00050831       0.00009744       0.00976788
O        0.00000832       1.97050157      11.48394869      -0.00002185      -0.00012341      -0.00386694
O        1.97065159       0.00000332      17.32726873      -0.00038284      -0.00000463      -0.00231219
O        1.97049330       3.94093335      11.48392936      -0.00003060       0.00002160      -0.00376435
O        0.00010232       1.97047772      17.32814057       0.00014912      -0.00002263      -0.00603386
O        1.97043774       1.97039557       9.52461877       0.00012676       0.00033579       0.00090117
O        0.00006259       3.94090389      15.37136045      -0.00014707       0.00006916       0.01114265
10
Lattice="3.940949890606662 0.0 0.0 0.0 3.940949890606662 0.0 0.0 0.0 26.940967945119528" Properties=species:S:1:pos:R:3:forces:R:3 tau=tau55 tau_p=5 tau_q=5 stage=C constraint=fixed_layer_xy_centroids force_label=raw_dft projected_fmax_eV_A=0.011333543833493458 energy=-15499.22996241074 pbc="T T T"
Sr       0.00003089       0.00009146       9.89184908      -0.00010182      -0.00009565       0.00765032
Sr       1.97037085       1.97045666      15.73535050      -0.00005759      -0.00008073      -0.01133317
Ti       1.97047472       1.97056794      11.34107680       0.00002982      -0.00010773      -0.00389188
Ti       3.94069621       3.94088975      17.18789241       0.00040289       0.00007071       0.00950974
O        0.00000800       1.97049983      11.48387716      -0.00000360      -0.00010439      -0.00318688
O        1.97064612       0.00000315      17.32722335      -0.00032396      -0.00003111      -0.00102484
O        1.97049293       3.94093356      11.48385897      -0.00002648       0.00000874      -0.00313058
O        0.00010489       1.97047702      17.32804456       0.00009796      -0.00004962      -0.00449095
O        1.97043948       1.97040030       9.52460641       0.00013138       0.00031830       0.00031676
O        0.00006060       3.94090486      15.37154070      -0.00014887       0.00007122       0.00958147
10
Lattice="3.940949890606662 0.0 0.0 0.0 3.940949890606662 0.0 0.0 0.0 26.940967945119528" Properties=species:S:1:pos:R:3:forces:R:3 tau=tau55 tau_p=5 tau_q=5 stage=C constraint=fixed_layer_xy_centroids force_label=raw_dft projected_fmax_eV_A=0.008701182795636152 energy=-15499.229970302042 pbc="T T T"
Sr       0.00002883       0.00009016       9.89202914      -0.00009950      -0.00010336       0.00700009
Sr       1.97036893       1.97045509      15.73512447      -0.00006222      -0.00008125      -0.00870061
Ti       1.97047547       1.97056543      11.34104609       0.00002854      -0.00010464      -0.00536949
Ti       3.94070407       3.94089122      17.18808140       0.00044094       0.00008073       0.00752716
O        0.00000767       1.97049780      11.48379891      -0.00001363      -0.00010722      -0.00269683
O        1.97063982       0.00000288      17.32717805      -0.00030673      -0.00002134      -0.00007379
O        1.97049246       3.94093376      11.48378200      -0.00002880       0.00002160      -0.00264875
O        0.00010766       1.97047618      17.32793860       0.00005039      -0.00004937      -0.00328510
O        1.97044160       1.97040594       9.52459666       0.00012933       0.00029876       0.00187048
O        0.00005819       3.94090607      15.37174465      -0.00013858       0.00006608       0.00637634
