10
Lattice="3.940949890606662 0.0 0.0 0.0 3.940949890606662 0.0 0.0 0.0 26.940967945119528" Properties=species:S:1:pos:R:3:forces:R:3 tau=tau32 tau_p=3 tau_q=2 stage=A constraint=rigid_scf force_label=raw_dft energy=-15498.233658543635 free_energy=-15498.233658543635 stress="0.01482181838216475 0.001906095209154062 0.012771572427424372 0.001906095209154062 0.009298182169124846 0.006841192390851115 0.012771572427424372 0.006841192390851115 -0.015700495219910626" pbc="T T T"
Sr       0.00003626       0.00009419      10.75260867       0.00631077      -0.00350081       0.40437411
Sr       1.18218684       0.78817579      14.64522241      -1.04598262      -1.03044158       3.41077095
Ti       1.97047258       1.97057465      12.38212169       0.88890364       1.21047485      -2.46008781
Ti       3.15248562       2.75860069      16.28444791      -0.12380222      -0.04527147      -0.18973610
O        0.00000906       1.97050529      12.45001441       1.45956976      -0.83311893      -1.45066834
O        1.18247295       2.75866847      16.39256827       0.01639155       0.07794685      -0.16365226
O        1.97049386       3.94093294      12.44909065      -0.35583836       0.66651067      -0.76752803
O        3.15285647       0.78819431      16.37955485       0.00415336       0.00753642      -0.04774101
O        1.97043435       1.97038588      10.49176941       0.22296864       0.14866376       0.32657587
O        3.15282651       2.75861684      14.44792112      -1.07267427      -0.19879950       0.93769238
