10
Lattice="3.940949890606662 0.0 0.0 0.0 3.940949890606662 0.0 0.0 0.0 26.940967945119528" Properties=species:S:1:pos:R:3:forces:R:3 tau=tau27 tau_p=2 tau_q=7 stage=A constraint=rigid_scf force_label=raw_dft energy=-15498.235126189624 free_energy=-15498.235126189624 stress="0.009594747078834271 -0.0019079315243844606 0.006841192390851115 -0.0019079315243844606 0.014460064281776167 -0.01276055453604198 0.006841192390851115 -0.01276055453604198 -0.015726203633136208" pbc="T T T"
Sr       0.00003626       0.00009419      10.75260867      -0.00364120      -0.00627041       0.40465410
Sr       0.78809185       2.75865074      14.64522241      -1.03352151       1.04567383       3.41210689
Ti       1.97047258       1.97057465      12.38212169       1.21119373      -0.88877868      -2.46021097
Ti       2.75839063       0.78812574      16.28444791      -0.04648683       0.12214360      -0.19037348
O        0.00000906       1.97050529      12.45001441       0.66871848       0.35458521      -0.77435971
O        0.78837796       0.78819352      16.39256827       0.00978536      -0.00292849      -0.08509632
O        1.97049386       3.94093294      12.44909065      -0.83223164      -1.45461010      -1.44271977
O        2.75876148       2.75866926      16.37955485       0.08077481      -0.01403411      -0.12625608
O        1.97043435       1.97038588      10.49176941       0.14866658      -0.22220759       0.32705461
O        2.75873153       0.78814190      14.44792112      -0.20325753       1.06642649       0.93520072
