10
Lattice="3.940949890606662 0.0 0.0 0.0 3.940949890606662 0.0 0.0 0.0 26.940967945119528" Properties=species:S:1:pos:R:3:forces:R:3 tau=tau98 tau_p=9 tau_q=8 stage=B constraint=xy_fixed_z_free force_label=raw_dft energy=-15499.6016267843 free_energy=-15499.6016267843 stress="0.008877665981363499 0.0008915310443586677 -0.0055741348818758715 0.0008915310443586677 0.010971065344018248 -0.013117717848354566 -0.0055741348818758715 -0.013117717848354566 -0.006709895851877593" pbc="T T T"
Sr       0.00003626       0.00009419      10.75260867       0.00195532      -0.00042937       0.19419131
Sr       3.54675677       3.15274573      14.64522241       0.45219740       0.70809492       1.63966062
Ti       1.97047258       1.97057465      12.38212169      -0.55380868      -0.59846874      -0.63522292
Ti       1.57610567       1.18222073      16.28444791       0.03813434       0.12202430      -0.01605088
O        0.00000906       1.97050529      12.45001441      -0.67256999       0.27628123      -0.41034524
O        3.54704288       1.18228851      16.39256827       0.00747394       0.03942427      -0.04887821
O        1.97049386       3.94093294      12.44909065       0.40844519      -1.64468867      -1.02302729
O        1.57647651       3.15276425      16.37955485      -0.00585620       0.00442075      -0.04495188
O        1.97043435       1.97038588      10.49176941      -0.12777020      -0.27046103       0.17317768
O        1.57644656       1.18223689      14.44792112       0.45179862       1.36380233       0.17144707
10
Lattice="3.940949890606662 0.0 0.0 0.0 3.940949890606662 0.0 0.0 0.0 26.940967945119528" Properties=species:S:1:pos:R:3:forces:R:3 tau=tau98 tau_p=9 tau_q=8 stage=B constraint=xy_fixed_z_free force_label=raw_dft energy=-15499.682373572668 free_energy=-15499.682373572668 stress="0.008050405970068793 0.0008419505331378973 -0.005314296276774427 0.0008419505331378973 0.009970273543450847 -0.012269340211910274 -0.005314296276774427 -0.012269340211910274 -0.007064304691344582" pbc="T T T"
Sr       0.00003612       0.00009431      10.75660551       0.00162005      -0.00073842       0.17682273
Sr       3.54675692       3.15274591      14.67896973       0.41039923       0.61310372       1.26796575
Ti       1.97047269       1.97057450      12.36904798      -0.50403829      -0.55776226      -0.46658066
Ti       1.57610576       1.18222079      16.28411756       0.03801633       0.11765317      -0.04972951
O        0.00000902       1.97050521      12.44156885      -0.66178704       0.31315265      -0.28967488
O        3.54704290       1.18228858      16.39156233       0.00605803       0.03729128       0.01527055
O        1.97049401       3.94093312      12.42803498       0.39966025      -1.54361295      -0.86088273
O        1.57647643       3.15276434      16.37862962      -0.00651415       0.00198772       0.02132242
O        1.97043419       1.97038596      10.49533368      -0.12523021      -0.26479277      -0.03005260
O        1.57644658       1.18223686      14.45144972       0.44181580       1.28371787       0.21553943
10
Lattice="3.940949890606662 0.0 0.0 0.0 3.940949890606662 0.0 0.0 0.0 26.940967945119528" Properties=species:S:1:pos:R:3:forces:R:3 tau=tau98 tau_p=9 tau_q=8 stage=B constraint=xy_fixed_z_free force_label=raw_dft energy=-15499.751146943967 free_energy=-15499.751146943967 stress="0.007064304691344582 0.0007914518643019274 -0.005049866883596985 0.0007914518643019274 0.008776668643691558 -0.01137413653709081 -0.005049866883596985 -0.01137413653709081 -0.007497675085718723" pbc="T T T"
Sr       0.00003612       0.00009431      10.76173541       0.00166299      -0.00043426       0.11492677
Sr       3.54675692       3.15274591      14.71609146       0.37045457       0.52328043       0.89011026
Ti       1.97047269       1.97057450      12.35534475      -0.45698196      -0.52292227      -0.35681615
Ti       1.57610576       1.18222079      16.28272726       0.03760110       0.11130408       0.00416519
O        0.00000902       1.97050521      12.43303954      -0.64658308       0.34306204      -0.16543532
O        3.54704290       1.18228858      16.39191609       0.00437936       0.03517115       0.07501425
O        1.97049401       3.94093312      12.40295391       0.38423800      -1.42834294      -0.66146077
O        1.57647643       3.15276434      16.37915525      -0.00727288      -0.00067929       0.08299572
O        1.97043419       1.97038596      10.49474215      -0.12083311      -0.25624385      -0.16530779
O        1.57644658       1.18223686      14.45761412       0.43333501       1.19580440       0.18180733
10
Lattice="3.940949890606662 0.0 0.0 0.0 3.940949890606662 0.0 0.0 0.0 26.940967945119528" Properties=species:S:1:pos:R:3:forces:R:3 tau=tau98 tau_p=9 tau_q=8 stage=B constraint=xy_fixed_z_free force_label=raw_dft energy=-15499.817910210339 free_energy=-15499.817910210339 stress="0.005465792283282336 0.0007326897769291624 -0.004690867256053999 0.0007326897769291624 0.00684761949415751 -0.01011626060426756 -0.004690867256053999 -0.01011626060426756 -0.008068769122372782" pbc="T T T"
Sr       0.00003612       0.00009431      10.76899711       0.00198026       0.00042757      -0.01773753
Sr       3.54675692       3.15274591      14.77177406       0.31914229       0.40918053       0.35792584
Ti       1.97047269       1.97057450      12.33352434      -0.39515310      -0.47873041      -0.23568429
Ti       1.57610576       1.18222079      16.28233921       0.03687322       0.10154546       0.09412320
O        0.00000902       1.97050521      12.42177317      -0.62186835       0.37331595      -0.01698445
O        3.54704290       1.18228858      16.39502552       0.00180671       0.03207554       0.16683220
O        1.97049401       3.94093312      12.36308351       0.35501432      -1.26131842      -0.36263842
O        1.57647643       3.15276434      16.38267236      -0.00828718      -0.00421172       0.17716161
O        1.97043419       1.97038596      10.48815474      -0.11246391      -0.24114068      -0.28932007
O        1.57644658       1.18223686      14.46797594       0.42295547       1.06885644       0.12632190
10
Lattice="3.940949890606662 0.0 0.0 0.0 3.940949890606662 0.0 0.0 0.0 26.940967945119528" Properties=species:S:1:pos:R:3:forces:R:3 tau=tau98 tau_p=9 tau_q=8 stage=B constraint=xy_fixed_z_free force_label=raw_dft energy=-15499.847409799473 free_energy=-15499.847409799473 stress="0.003916860386440861 0.0006904545266299876 -0.004375939194040587 0.0006904545266299876 0.004955296649231441 -0.008955709378655452 -0.004375939194040587 -0.008955709378655452 -0.008299226683787844" pbc="T T T"
Sr       0.00003612       0.00009431      10.77352856       0.00258242       0.00167096      -0.18292885
Sr       3.54675692       3.15274591      14.82652520       0.27666844       0.31585694      -0.12082282
Ti       1.97047269       1.97057450      12.30840582      -0.34316797      -0.44355155      -0.14010610
Ti       1.57610576       1.18222079      16.28562703       0.03625204       0.09243039       0.17629772
O        0.00000902       1.97050521      12.41246912      -0.59600717       0.38977770       0.07320188
O        3.54704290       1.18228858      16.40319292      -0.00063121       0.02903418       0.24984824
O        1.97049401       3.94093312      12.32039694       0.32052298      -1.10293615      -0.07746477
O        1.57647643       3.15276434      16.39150467      -0.00903357      -0.00706848       0.26108396
O        1.97043419       1.97038596      10.47370318      -0.10200440      -0.22325069      -0.32317558
O        1.57644658       1.18223686      14.47996653       0.41481870       0.94803644       0.08406607
10
Lattice="3.940949890606662 0.0 0.0 0.0 3.940949890606662 0.0 0.0 0.0 26.940967945119528" Properties=species:S:1:pos:R:3:forces:R:3 tau=tau98 tau_p=9 tau_q=8 stage=B constraint=xy_fixed_z_free force_label=raw_dft energy=-15499.856403433954 free_energy=-15499.856403433954 stress="0.0038828885546784817 0.0006794366352475943 -0.004299732111979032 0.0006794366352475943 0.004795537224186736 -0.00863802684379644 -0.004299732111979032 -0.00863802684379644 -0.0077382323809009786" pbc="T T T"
Sr       0.00003612       0.00009431      10.77053892       0.00272434       0.00202989      -0.22784499
Sr       3.54675692       3.15274591      14.84012380       0.26558390       0.29299160      -0.20270140
Ti       1.97047269       1.97057450      12.29766530      -0.33052560      -0.43813218      -0.11446217
Ti       1.57610576       1.18222079      16.29064310       0.03661405       0.09063447       0.18813327
O        0.00000902       1.97050521      12.41110683      -0.58895977       0.39150471       0.05600788
O        3.54704290       1.18228858      16.41109216      -0.00137914       0.02811090       0.24654668
O        1.97049401       3.94093312      12.30619206       0.30818502      -1.05547513      -0.01496228
O        1.57647643       3.15276434      16.39984171      -0.00922229      -0.00763900       0.25629142
O        1.97043419       1.97038596      10.46287617      -0.09742321      -0.21548004      -0.26725100
O        1.57644658       1.18223686      14.48523991       0.41440269       0.91145479       0.08024259
10
Lattice="3.940949890606662 0.0 0.0 0.0 3.940949890606662 0.0 0.0 0.0 26.940967945119528" Properties=species:S:1:pos:R:3:forces:R:3 tau=tau98 tau_p=9 tau_q=8 stage=B constraint=xy_fixed_z_free force_label=raw_dft energy=-15499.86890788118 free_energy=-15499.86890788118 stress="0.004251987915988661 0.0006684187438652008 -0.0042345429212998715 0.0006684187438652008 0.005013140578989006 -0.008333198515550224 -0.0042345429212998715 -0.008333198515550224 -0.006686023753882407" pbc="T T T"
Sr       0.00003612       0.00009431      10.76290903       0.00281896       0.00225846      -0.25493516
Sr       3.54675692       3.15274591      14.85120087       0.25526041       0.27246957      -0.23147642
Ti       1.97047269       1.97057450      12.28398012      -0.31991003      -0.43611797      -0.07561332
Ti       1.57610576       1.18222079      16.29951979       0.03756845       0.08997910       0.18636307
O        0.00000902       1.97050521      12.41022605      -0.58150486       0.39127048       0.00578370
O        3.54704290       1.18228858      16.42387221      -0.00211345       0.02708914       0.21727699
O        1.97049401       3.94093312      12.29077789       0.29445148      -1.00635883       0.02599565
O        1.57647643       3.15276434      16.41325079      -0.00931459      -0.00798816       0.22410609
O        1.97043419       1.97038596      10.44725081      -0.09175753      -0.20582606      -0.17911153
O        1.57644658       1.18223686      14.49233241       0.41450117       0.87322428       0.08161119
10
Lattice="3.940949890606662 0.0 0.0 0.0 3.940949890606662 0.0 0.0 0.0 26.940967945119528" Properties=species:S:1:pos:R:3:forces:R:3 tau=tau98 tau_p=9 tau_q=8 stage=B constraint=xy_fixed_z_free force_label=raw_dft energy=-15499.88527620886 free_energy=-15499.88527620886 stress="0.005173818161648911 0.0006491374339460123 -0.004162926627314314 0.0006491374339460123 0.005718285627462185 -0.007981544148928833 -0.004162926627314314 -0.007981544148928833 -0.0049148977141626644" pbc="T T T"
Sr       0.00003612       0.00009431      10.74754245       0.00273025       0.00238470      -0.25928778
Sr       3.54675692       3.15274591      14.86154764       0.24418821       0.25083528      -0.20403375
Ti       1.97047269       1.97057450      12.26459272      -0.30924792      -0.43670444      -0.01940309
Ti       1.57610576       1.18222079      16.31502580       0.03924095       0.09010482       0.16713096
O        0.00000902       1.97050521      12.40851170      -0.57066380       0.38862224      -0.08144072
O        3.54704290       1.18228858      16.44482054      -0.00289301       0.02570949       0.15529206
O        1.97049401       3.94093312      12.27091837       0.27679751      -0.94587774       0.05150922
O        1.57647643       3.15276434      16.43514035      -0.00928168      -0.00813600       0.15738262
O        1.97043419       1.97038596      10.42381276      -0.08424322      -0.19265276      -0.05482003
O        1.57644658       1.18223686      14.50340763       0.41337271       0.82571441       0.08767102
10
Lattice="3.940949890606662 0.0 0.0 0.0 3.940949890606662 0.0 0.0 0.0 26.940967945119528" Properties=species:S:1:pos:R:3:forces:R:3 tau=tau98 tau_p=9 tau_q=8 stage=B constraint=xy_fixed_z_free force_label=raw_dft energy=-15499.901269427613 free_energy=-15499.901269427613 stress="0.0069256628914494646 0.0006105748141076354 -0.004073865338639967 0.0006105748141076354 0.007155202295249326 -0.007548173754554692 -0.004073865338639967 -0.007548173754554692 -0.002150325134797116" pbc="T T T"
Sr       0.00003612       0.00009431      10.71854724       0.00239781       0.00228854      -0.21589708
Sr       3.54675692       3.15274591      14.87130060       0.23216419       0.22718370      -0.09692673
Ti       1.97047269       1.97057450      12.23682667      -0.29808187      -0.43892048       0.04747182
Ti       1.57610576       1.18222079      16.34172644       0.04187401       0.09086793       0.11959204
O        0.00000902       1.97050521      12.40305505      -0.55166978       0.38158976      -0.20377355
O        3.54704290       1.18228858      16.47860799      -0.00362166       0.02363358       0.05064765
O        1.97049401       3.94093312      12.24386704       0.25351746      -0.86742387       0.05873582
O        1.57647643       3.15276434      16.47029742      -0.00908319      -0.00803907       0.04566896
O        1.97043419       1.97038596      10.38930013      -0.07448357      -0.17463987       0.09986987
O        1.57644658       1.18223686      14.52179139       0.40698660       0.76345977       0.09461120
10
Lattice="3.940949890606662 0.0 0.0 0.0 3.940949890606662 0.0 0.0 0.0 26.940967945119528" Properties=species:S:1:pos:R:3:forces:R:3 tau=tau98 tau_p=9 tau_q=8 stage=B constraint=xy_fixed_z_free force_label=raw_dft energy=-15499.906789392888 free_energy=-15499.906789392888 stress="0.008059587546220787 0.0005784392975756546 -0.004030711930725593 0.0005784392975756546 0.008164257514353524 -0.007362705916284403 -0.004030711930725593 -0.007362705916284403 -0.0006684187438652008" pbc="T T T"
Sr       0.00003612       0.00009431      10.69772149       0.00197692       0.00188668      -0.14868510
Sr       3.54675692       3.15274591      14.87372964       0.22810467       0.21894846      -0.00739501
Ti       1.97047269       1.97057450      12.22327777      -0.29503409      -0.44136225       0.06652318
Ti       1.57610576       1.18222079      16.35910506       0.04324775       0.09143151       0.07801087
O        0.00000902       1.97050521      12.39528800      -0.53680597       0.37518951      -0.23999705
O        3.54704290       1.18228858      16.49815533      -0.00377592       0.02225341      -0.00445521
O        1.97049401       3.94093312      12.23099852       0.24267151      -0.82977547       0.05105491
O        1.57647643       3.15276434      16.49046188      -0.00892996      -0.00775908      -0.01238680
O        1.97043419       1.97038596      10.37255465      -0.07032070      -0.16571480       0.13513744
O        1.57644658       1.18223686      14.53402763       0.39886552       0.73490202       0.08219303
10
Lattice="3.940949890606662 0.0 0.0 0.0 3.940949890606662 0.0 0.0 0.0 26.940967945119528" Properties=species:S:1:pos:R:3:forces:R:3 tau=tau98 tau_p=9 tau_q=8 stage=B constraint=xy_fixed_z_free force_label=raw_dft energy=-15499.910504699184 free_energy=-15499.910504699184 stress="0.008785850219843553 0.0005463037810436738 -0.004000412729424011 0.0005463037810436738 0.008899701764128284 -0.0072745627852252555 -0.004000412729424011 -0.0072745627852252555 0.00015425047935350788" pbc="T T T"
Sr       0.00003612       0.00009431      10.68042139       0.00156066       0.00126447      -0.06739273
Sr       3.54675692       3.15274591      14.87449361       0.22697364       0.21616293       0.05636038
Ti       1.97047269       1.97057450      12.21663587      -0.29543004      -0.44411488       0.05049389
Ti       1.57610576       1.18222079      16.37239492       0.04357557       0.09211748       0.03249489
O        0.00000902       1.97050521      12.38403627      -0.52161564       0.36865583      -0.21556360
O        3.54704290       1.18228858      16.51072070      -0.00369159       0.02096683      -0.02813481
O        1.97049401       3.94093312      12.22451698       0.23708374      -0.80800491       0.04758803
O        1.57647643       3.15276434      16.50321031      -0.00875409      -0.00745131      -0.03660814
O        1.97043419       1.97038596      10.36482474      -0.06859600      -0.16044095       0.10505887
O        1.57644658       1.18223686      14.54406517       0.38889401       0.72084451       0.05570321
10
Lattice="3.940949890606662 0.0 0.0 0.0 3.940949890606662 0.0 0.0 0.0 26.940967945119528" Properties=species:S:1:pos:R:3:forces:R:3 tau=tau98 tau_p=9 tau_q=8 stage=B constraint=xy_fixed_z_free force_label=raw_dft energy=-15499.913404072136 free_energy=-15499.913404072136 stress="0.009120977749391353 0.0005132501068964935 -0.003969195370507229 0.0005132501068964935 0.009371634778340803 -0.0072350820077716795 -0.003969195370507229 -0.0072350820077716795 0.00046458775329092256" pbc="T T T"
Sr       0.00003612       0.00009431      10.66647196       0.00109915       0.00056230       0.01661087
Sr       3.54675692       3.15274591      14.87597165       0.22683660       0.21564768       0.08501533
Ti       1.97047269       1.97057450      12.21465909      -0.29762756      -0.44593419       0.00655708
Ti       1.57610576       1.18222079      16.38224710       0.04337374       0.09252320      -0.01040757
O        0.00000902       1.97050521      12.36892464      -0.50485487       0.36173802      -0.13821865
O        3.54704290       1.18228858      16.51788524      -0.00353321       0.01965146      -0.02527343
O        1.97049401       3.94093312      12.22270730       0.23496001      -0.79605776       0.05212860
O        1.57647643       3.15276434      16.51017590      -0.00853118      -0.00720577      -0.03217967
O        1.97043419       1.97038596      10.36363971      -0.06855898      -0.15727849       0.02744241
O        1.57644658       1.18223686      14.55263740       0.37683631       0.71635356       0.01832502
10
Lattice="3.940949890606662 0.0 0.0 0.0 3.940949890606662 0.0 0.0 0.0 26.940967945119528" Properties=species:S:1:pos:R:3:forces:R:3 tau=tau98 tau_p=9 tau_q=8 stage=B constraint=xy_fixed_z_free force_label=raw_dft energy=-15499.914650353516 free_energy=-15499.914650353516 stress="0.008968563585268244 0.0004985595850533022 -0.003940732484436047 0.0004985595850533022 0.009370716620725604 -0.007224064116389286 -0.003940732484436047 -0.007224064116389286 0.00028095623025103223" pbc="T T T"
Sr       0.00003612       0.00009431      10.66274049       0.00091943       0.00026174       0.04840667
Sr       3.54675692       3.15274591      14.87884905       0.22617583       0.21498459       0.06356333
Ti       1.97047269       1.97057450      12.21567018      -0.29857912      -0.44442804      -0.02722850
Ti       1.57610576       1.18222079      16.38446680       0.04270679       0.09240802      -0.02279849
O        0.00000902       1.97050521      12.35854338      -0.49462471       0.35773095      -0.06674301
O        3.54704290       1.18228858      16.51805970      -0.00345376       0.01888115      -0.00693838
O        1.97049401       3.94093312      12.22484321       0.23580538      -0.79528335       0.05791461
O        1.57647643       3.15276434      16.50997600      -0.00832780      -0.00725282      -0.01139770
O        1.97043419       1.97038596      10.36631311      -0.06934831      -0.15639866      -0.03113349
O        1.57644658       1.18223686      14.55585803       0.36872576       0.71909693      -0.00364505
10
Lattice="3.940949890606662 0.0 0.0 0.0 3.940949890606662 0.0 0.0 0.0 26.940967945119528" Properties=species:S:1:pos:R:3:forces:R:3 tau=tau98 tau_p=9 tau_q=8 stage=B constraint=xy_fixed_z_free force_label=raw_dft energy=-15499.915235942497 free_energy=-15499.915235942497 stress="0.008693116300708409 0.000493968796977305 -0.003909515125519266 0.000493968796977305 0.009206366407604902 -0.007202946491239698 -0.003909515125519266 -0.007202946491239698 4.6826038375172033e-05" pbc="T T T"
Sr       0.00003612       0.00009431      10.66355784       0.00092585       0.00024631       0.04611016
Sr       3.54675692       3.15274591      14.88252324       0.22437143       0.21281792       0.02686289
Ti       1.97047269       1.97057450      12.21584784      -0.29760082      -0.44047059      -0.04022414
Ti       1.57610576       1.18222079      16.38387141       0.04206119       0.09207943      -0.01664995
O        0.00000902       1.97050521      12.35219815      -0.48838619       0.35524650      -0.02237528
O        3.54704290       1.18228858      16.51684660      -0.00345325       0.01841578       0.00770045
O        1.97049401       3.94093312      12.22756321       0.23694078      -0.79708003       0.05604131
O        1.57647643       3.15276434      16.50843931      -0.00814500      -0.00745286       0.00547619
O        1.97043419       1.97038596      10.36775612      -0.06982216      -0.15564276      -0.05236386
O        1.57644658       1.18223686      14.55671622       0.36310790       0.72184004      -0.01057778
10
Lattice="3.940949890606662 0.0 0.0 0.0 3.940949890606662 0.0 0.0 0.0 26.940967945119528" Properties=species:S:1:pos:R:3:forces:R:3 tau=tau98 tau_p=9 tau_q=8 stage=B constraint=xy_fixed_z_free force_label=raw_dft energy=-15499.915618670611 free_energy=-15499.915618670611 stress="0.00847551294590614 0.0004930506393621056 -0.0038718706632960877 0.0004930506393621056 0.009067724607709785 -0.0071662201866317205 -0.0038718706632960877 -0.0071662201866317205 -5.968024498796436e-05" pbc="T T T"
Sr       0.00003612       0.00009431      10.66505620       0.00100787       0.00033784       0.03019992
Sr       3.54675692       3.15274591      14.88640025       0.22161727       0.20942587      -0.00609300
Ti       1.97047269       1.97057450      12.21412978      -0.29536807      -0.43513298      -0.03644127
Ti       1.57610576       1.18222079      16.38340665       0.04156008       0.09184058      -0.00478071
O        0.00000902       1.97050521      12.34739381      -0.48318562       0.35283994       0.00104155
O        3.54704290       1.18228858      16.51679691      -0.00348924       0.01800544       0.01394438
O        1.97049401       3.94093312      12.22996934       0.23755476      -0.79816555       0.04382368
O        1.57647643       3.15276434      16.50815027      -0.00795396      -0.00770380       0.01357928
O        1.97043419       1.97038596      10.36669273      -0.06974143      -0.15412324      -0.04649146
O        1.57644658       1.18223686      14.55732403       0.35799886       0.72267591      -0.00878263
10
Lattice="3.940949890606662 0.0 0.0 0.0 3.940949890606662 0.0 0.0 0.0 26.940967945119528" Properties=species:S:1:pos:R:3:forces:R:3 tau=tau98 tau_p=9 tau_q=8 stage=B constraint=xy_fixed_z_free force_label=raw_dft energy=-15499.915876498475 free_energy=-15499.915876498475 stress="0.008384615342001392 0.0004921324817469061 -0.00383422620107291 0.0004921324817469061 0.009034670933562606 -0.007122148621102147 -0.00383422620107291 -0.007122148621102147 4.590788075997259e-06" pbc="T T T"
Sr       0.00003612       0.00009431      10.66573810       0.00110892       0.00046768       0.01250147
Sr       3.54675692       3.15274591      14.88947037       0.21859133       0.20592737      -0.02283911
Ti       1.97047269       1.97057450      12.21084720      -0.29279594      -0.42979615      -0.02078583
Ti       1.57610576       1.18222079      16.38406559       0.04127495       0.09181332       0.00525251
O        0.00000902       1.97050521      12.34347816      -0.47851058       0.35026370       0.00715821
O        3.54704290       1.18228858      16.51844049      -0.00352653       0.01761154       0.01083746
O        1.97049401       3.94093312      12.23186844       0.23761775      -0.79816144       0.02212589
O        1.57647643       3.15276434      16.50965801      -0.00776756      -0.00792260       0.01175945
O        1.97043419       1.97038596      10.36343514      -0.06920278      -0.15194397      -0.02331553
O        1.57644658       1.18223686      14.55831845       0.35321044       0.72174080      -0.00269426
