10
Lattice="3.940949890606662 0.0 0.0 0.0 3.940949890606662 0.0 0.0 0.0 26.940967945119528" Properties=species:S:1:pos:R:3:forces:R:3 tau=tau76 tau_p=7 tau_q=6 stage=B constraint=xy_fixed_z_free force_label=raw_dft energy=-15499.16768453283 free_energy=-15499.16768453283 stress="0.009777460444258961 9.548839198074298e-05 -0.0024019003213617655 9.548839198074298e-05 0.007941145213860057 -0.00132306512350241 -0.0024019003213617655 -0.00132306512350241 -0.0021622611837947086" pbc="T T T"
Sr       0.00003626       0.00009419      10.47824880       0.00570965       0.00403458      -0.63132924
Sr       2.75856679       2.36455575      15.20985807       0.24353798       0.09970918       0.20658171
Ti       1.97047258       1.97057465      11.83890077      -0.17407397      -0.12044333       0.03738795
Ti       0.78791569       0.39403075      16.65170858       0.00892636       0.01108377       0.23509165
O        0.00000906       1.97050529      12.07328758      -0.26245255       0.11073458      -0.18141910
O        2.75885291       0.39409854      16.82505520      -0.00558212      -0.00554895      -0.28316330
O        1.97049386       3.94093294      11.90035830       0.13133066      -0.12839009       0.48143778
O        0.78828653       2.36457427      16.83176900      -0.01870015      -0.00334938      -0.31960741
O        1.97043435       1.97038588      10.04105283      -0.02310059      -0.02109333       0.00946012
O        0.78825658       0.39404691      14.82507949       0.09440474       0.05326323       0.44556009
10
Lattice="3.940949890606662 0.0 0.0 0.0 3.940949890606662 0.0 0.0 0.0 26.940967945119528" Properties=species:S:1:pos:R:3:forces:R:3 tau=tau76 tau_p=7 tau_q=6 stage=B constraint=xy_fixed_z_free force_label=raw_dft energy=-15499.188608998566 free_energy=-15499.188608998566 stress="0.009909675140847682 9.089760390474572e-05 -0.002376191908136181 9.089760390474572e-05 0.00817252093289032 -0.0013350011725000027 -0.002376191908136181 -0.0013350011725000027 -0.0025818592139408582" pbc="T T T"
Sr       0.00003612       0.00009431      10.46525522       0.00484833       0.00344476      -0.49144529
Sr       2.75856694       2.36455593      15.21411001       0.24138108       0.10055662       0.17779230
Ti       1.97047269       1.97057450      11.83967035      -0.17345793      -0.11927990       0.08930675
Ti       0.78791578       0.39403080      16.65654744       0.00891453       0.01145426       0.17572076
O        0.00000902       1.97050521      12.06955387      -0.25687300       0.10778116      -0.20258750
O        2.75885292       0.39409860      16.81922718      -0.00557647      -0.00574050      -0.19211000
O        1.97049401       3.94093312      11.91026703       0.13131498      -0.12876136       0.37576287
O        0.78828644       2.36457436      16.82519109      -0.01877934      -0.00336172      -0.22621697
O        1.97043419       1.97038596      10.04124765      -0.02301137      -0.02054260      -0.05276007
O        0.78825659       0.39404688      14.83425012       0.09123920       0.05444902       0.34653714
10
Lattice="3.940949890606662 0.0 0.0 0.0 3.940949890606662 0.0 0.0 0.0 26.940967945119528" Properties=species:S:1:pos:R:3:forces:R:3 tau=tau76 tau_p=7 tau_q=6 stage=B constraint=xy_fixed_z_free force_label=raw_dft energy=-15499.206203335147 free_energy=-15499.206203335147 stress="0.010053825886433996 8.630681582874845e-05 -0.002351401652525796 8.630681582874845e-05 0.008513157408129317 -0.0013533643248039918 -0.002351401652525796 -0.0013533643248039918 -0.0027489638999071584" pbc="T T T"
Sr       0.00003612       0.00009431      10.45096199       0.00390551       0.00280533      -0.35824826
Sr       2.75856694       2.36455593      15.21925117       0.23927175       0.10183497       0.14560569
Ti       1.97047269       1.97057450      11.84216226      -0.17341474      -0.11831394       0.04993597
Ti       0.78791578       0.39403080      16.66167088       0.00892507       0.01190549       0.12414289
O        0.00000902       1.97050521      12.06376933      -0.25063782       0.10443538      -0.20252991
O        2.75885292       0.39409860      16.81359023      -0.00557749      -0.00598064      -0.09863035
O        1.97049401       3.94093312      11.92119399       0.13157620      -0.12949104       0.27797816
O        0.78828644       2.36457436      16.81857223      -0.01888192      -0.00337792      -0.12944425
O        1.97043419       1.97038596      10.03981852      -0.02300443      -0.01994970      -0.04440835
O        0.78825659       0.39404688      14.84432936       0.08783788       0.05613181       0.23559867
10
Lattice="3.940949890606662 0.0 0.0 0.0 3.940949890606662 0.0 0.0 0.0 26.940967945119528" Properties=species:S:1:pos:R:3:forces:R:3 tau=tau76 tau_p=7 tau_q=6 stage=B constraint=xy_fixed_z_free force_label=raw_dft energy=-15499.22235764529 free_energy=-15499.22235764529 stress="0.01016400480025793 7.98797125223523e-05 -0.002307330086996222 7.98797125223523e-05 0.009025489357410611 -0.001379990895644776 -0.002307330086996222 -0.001379990895644776 -0.0029931938255502123" pbc="T T T"
Sr       0.00003612       0.00009431      10.42952216       0.00259013       0.00192139      -0.16879601
Sr       2.75856694       2.36455593      15.22760558       0.23524617       0.10360954       0.09474387
Ti       1.97047269       1.97057450      11.84521481      -0.17306944      -0.11664632      -0.00408523
Ti       0.78791578       0.39403080      16.66920038       0.00884254       0.01254698       0.06269866
O        0.00000902       1.97050521      12.05289264      -0.24079204       0.09927955      -0.19413243
O        2.75885292       0.39409860      16.80681371      -0.00554484      -0.00634214       0.02968339
O        1.97049401       3.94093312      11.93775076       0.13224521      -0.13071077       0.13700277
O        0.78828644       2.36457436      16.81008324      -0.01891612      -0.00340234       0.00498923
O        1.97043419       1.97038596      10.03748967      -0.02307822      -0.01901922      -0.04389336
O        0.78825659       0.39404688      14.85874702       0.08247662       0.05876333       0.08178936
10
Lattice="3.940949890606662 0.0 0.0 0.0 3.940949890606662 0.0 0.0 0.0 26.940967945119528" Properties=species:S:1:pos:R:3:forces:R:3 tau=tau76 tau_p=7 tau_q=6 stage=B constraint=xy_fixed_z_free force_label=raw_dft energy=-15499.228446600602 free_energy=-15499.228446600602 stress="0.010155741381721135 7.437076683115559e-05 -0.002256831418160252 7.437076683115559e-05 0.009537821306691905 -0.001404781151255161 -0.002256831418160252 -0.001404781151255161 -0.0031336719406757285" pbc="T T T"
Sr       0.00003612       0.00009431      10.40932937       0.00144676       0.00119942      -0.00496506
Sr       2.75856694       2.36455593      15.23642210       0.23014227       0.10510901       0.04248671
Ti       1.97047269       1.97057450      11.84694737      -0.17250894      -0.11477070      -0.05507200
Ti       0.78791578       0.39403080      16.67647447       0.00866205       0.01292622       0.01193480
O        0.00000902       1.97050521      12.03905312      -0.23058013       0.09414171      -0.17205514
O        2.75885292       0.39409860      16.80324060      -0.00545537      -0.00662342       0.13194876
O        1.97049401       3.94093312      11.95356755       0.13331453      -0.13203617       0.01217417
O        0.78828644       2.36457436      16.80452614      -0.01874771      -0.00337560       0.11482932
O        1.97043419       1.97038596      10.03452743      -0.02323455      -0.01806329      -0.04814596
O        0.78825659       0.39404688      14.87123182       0.07696109       0.06149256      -0.03313561
10
Lattice="3.940949890606662 0.0 0.0 0.0 3.940949890606662 0.0 0.0 0.0 26.940967945119528" Properties=species:S:1:pos:R:3:forces:R:3 tau=tau76 tau_p=7 tau_q=6 stage=B constraint=xy_fixed_z_free force_label=raw_dft energy=-15499.23011656323 free_energy=-15499.23011656323 stress="0.010123605865189155 7.345260921595614e-05 -0.002233877477780266 7.345260921595614e-05 0.009726961775422992 -0.0014112082545615573 -0.002233877477780266 -0.0014112082545615573 -0.003065728277150969" pbc="T T T"
Sr       0.00003612       0.00009431      10.40427245       0.00121048       0.00105518       0.02503869
Sr       2.75856694       2.36455593      15.23946725       0.22759482       0.10531239       0.03108695
Ti       1.97047269       1.97057450      11.84603842      -0.17210399      -0.11394358      -0.06762258
Ti       0.78791578       0.39403080      16.67855144       0.00844633       0.01299436       0.00870473
O        0.00000902       1.97050521      12.03200900      -0.22684072       0.09239439      -0.15280272
O        2.75885292       0.39409860      16.80520850      -0.00537900      -0.00666764       0.13741955
O        1.97049401       3.94093312      11.95770140       0.13394728      -0.13254911      -0.01921617
O        0.78828644       2.36457436      16.80564628      -0.01850449      -0.00337097       0.12374128
O        1.97043419       1.97038596      10.03282144      -0.02334382      -0.01774807      -0.05098626
O        0.78825659       0.39404688      14.87360379       0.07497337       0.06252280      -0.03536347
10
Lattice="3.940949890606662 0.0 0.0 0.0 3.940949890606662 0.0 0.0 0.0 26.940967945119528" Properties=species:S:1:pos:R:3:forces:R:3 tau=tau76 tau_p=7 tau_q=6 stage=B constraint=xy_fixed_z_free force_label=raw_dft energy=-15499.23203945567 free_energy=-15499.23203945567 stress="0.01006576193543159 7.345260921595614e-05 -0.0022100053797850802 7.345260921595614e-05 0.009888557515698095 -0.001414880885022355 -0.0022100053797850802 -0.001414880885022355 -0.0029766669884766224" pbc="T T T"
Sr       0.00003612       0.00009431      10.40044971       0.00107061       0.00097522       0.03991741
Sr       2.75856694       2.36455593      15.24237317       0.22474167       0.10530930       0.02462963
Ti       1.97047269       1.97057450      11.84427069      -0.17154966      -0.11304189      -0.07527547
Ti       0.78791578       0.39403080      16.68044039       0.00821185       0.01299718       0.01446323
O        0.00000902       1.97050521      12.02426047      -0.22313602       0.09072472      -0.12965199
O        2.75885292       0.39409860      16.80860853      -0.00529056      -0.00667356       0.12896114
O        1.97049401       3.94093312      11.96078088       0.13456588      -0.13296794      -0.04361645
O        0.78828644       2.36457436      16.80817947      -0.01819338      -0.00335992       0.11887727
O        1.97043419       1.97038596      10.03074443      -0.02345077      -0.01744365      -0.05415489
O        0.78825659       0.39404688      14.87521222       0.07303039       0.06348105      -0.02414960
10
Lattice="3.940949890606662 0.0 0.0 0.0 3.940949890606662 0.0 0.0 0.0 26.940967945119528" Properties=species:S:1:pos:R:3:forces:R:3 tau=tau76 tau_p=7 tau_q=6 stage=B constraint=xy_fixed_z_free force_label=raw_dft energy=-15499.234781138653 free_energy=-15499.234781138653 stress="0.00996568275537485 7.253445160075668e-05 -0.002173279075177102 7.253445160075668e-05 0.010093306663887573 -0.0014185535154831528 -0.002173279075177102 -0.0014185535154831528 -0.002835270715735907" pbc="T T T"
Sr       0.00003612       0.00009431      10.39599358       0.00094617       0.00091017       0.04719877
Sr       2.75856694       2.36455593      15.24648995       0.22040011       0.10506067       0.01948125
Ti       1.97047269       1.97057450      11.84084305      -0.17050836      -0.11162676      -0.08096944
Ti       0.78791578       0.39403080      16.68326819       0.00784058       0.01294936       0.02768898
O        0.00000902       1.97050521      12.01263768      -0.21785960       0.08838578      -0.09399516
O        2.75885292       0.39409860      16.81459871      -0.00515583      -0.00664373       0.10770505
O        1.97049401       3.94093312      11.96403624       0.13527885      -0.13335772      -0.07180474
O        0.78828644       2.36457436      16.81293694      -0.01769022      -0.00333909       0.10277625
O        1.97043419       1.97038596      10.02728263      -0.02357882      -0.01700913      -0.05800846
O        0.78825659       0.39404688      14.87723299       0.07032738       0.06467096      -0.00007251
10
Lattice="3.940949890606662 0.0 0.0 0.0 3.940949890606662 0.0 0.0 0.0 26.940967945119528" Properties=species:S:1:pos:R:3:forces:R:3 tau=tau76 tau_p=7 tau_q=6 stage=B constraint=xy_fixed_z_free force_label=raw_dft energy=-15499.238201609605 free_energy=-15499.238201609605 stress="0.00981235043363654 7.161629398555724e-05 -0.0021172714606499357 7.161629398555724e-05 0.010361408687525813 -0.0014185535154831528 -0.0021172714606499357 -0.0014185535154831528 -0.0026185855185488363" pbc="T T T"
Sr       0.00003612       0.00009431      10.39033793       0.00081735       0.00087186       0.04251448
Sr       2.75856694       2.36455593      15.25260756       0.21378003       0.10436776       0.01650237
Ti       1.97047269       1.97057450      11.83470750      -0.16856692      -0.10933513      -0.08333048
Ti       0.78791578       0.39403080      16.68793491       0.00736158       0.01277427       0.04925617
O        0.00000902       1.97050521      11.99520349      -0.21020260       0.08501018      -0.04068925
O        2.75885292       0.39409860      16.82437678      -0.00495169      -0.00656943       0.07125838
O        1.97049401       3.94093312      11.96727199       0.13591520      -0.13354001      -0.10584435
O        0.78828644       2.36457436      16.82095687      -0.01694151      -0.00329667       0.07373512
O        1.97043419       1.97038596      10.02147577      -0.02370814      -0.01636739      -0.06209060
O        0.78825659       0.39404688      14.88044715       0.06649696       0.06608481       0.03868842
10
Lattice="3.940949890606662 0.0 0.0 0.0 3.940949890606662 0.0 0.0 0.0 26.940967945119528" Properties=species:S:1:pos:R:3:forces:R:3 tau=tau76 tau_p=7 tau_q=6 stage=B constraint=xy_fixed_z_free force_label=raw_dft energy=-15499.241659360152 free_energy=-15499.241659360152 stress="0.009566284192763088 6.886182113995888e-05 -0.0020337191176667854 6.886182113995888e-05 0.01068276385284562 -0.0014121264121767566 -0.0020337191176667854 -0.0014121264121767566 -0.002324775081685012" pbc="T T T"
Sr       0.00003612       0.00009431      10.38256302       0.00069728       0.00087058       0.01721662
Sr       2.75856694       2.36455593      15.26208220       0.20371159       0.10283898       0.01684330
Ti       1.97047269       1.97057450      11.82391462      -0.16501906      -0.10558081      -0.07787409
Ti       0.78791578       0.39403080      16.69617220       0.00677409       0.01228113       0.07966949
O        0.00000902       1.97050521      11.96905221      -0.19899361       0.08011069       0.03757487
O        2.75885292       0.39409860      16.83994621      -0.00466398      -0.00642133       0.01682221
O        1.97049401       3.94093312      11.96957302       0.13593500      -0.13299777      -0.14676191
O        0.78828644       2.36457436      16.83404554      -0.01584982      -0.00319820       0.02981117
O        1.97043419       1.97038596      10.01154918      -0.02374285      -0.01541685      -0.06526977
O        0.78825659       0.39404688      14.88642176       0.06115112       0.06751383       0.09196785
10
Lattice="3.940949890606662 0.0 0.0 0.0 3.940949890606662 0.0 0.0 0.0 26.940967945119528" Properties=species:S:1:pos:R:3:forces:R:3 tau=tau76 tau_p=7 tau_q=6 stage=B constraint=xy_fixed_z_free force_label=raw_dft energy=-15499.243780079354 free_energy=-15499.243780079354 stress="0.009375307408801601 6.518919067916107e-05 -0.001965775454142026 6.518919067916107e-05 0.010855377484503118 -0.0013974358903335654 -0.001965775454142026 -0.0013974358903335654 -0.00210992619972834" pbc="T T T"
Sr       0.00003612       0.00009431      10.37627605       0.00066900       0.00088472      -0.01926270
Sr       2.75856694       2.36455593      15.27050502       0.19530100       0.10087389       0.02170988
Ti       1.97047269       1.97057450      11.81309693      -0.16124108      -0.10198255      -0.06580301
Ti       0.78791578       0.39403080      16.70498810       0.00619636       0.01186487       0.09584893
O        0.00000902       1.97050521      11.94806458      -0.19002946       0.07616507       0.09578773
O        2.75885292       0.39409860      16.85349476      -0.00441021      -0.00629355      -0.02092030
O        1.97049401       3.94093312      11.96791447       0.13454686      -0.13141011      -0.16878444
O        0.78828644       2.36457436      16.84583416      -0.01495431      -0.00312312      -0.00038695
O        1.97043419       1.97038596      10.00166690      -0.02348600      -0.01467303      -0.06242664
O        0.78825659       0.39404688      14.89347901       0.05740811       0.06769355       0.12423750
10
Lattice="3.940949890606662 0.0 0.0 0.0 3.940949890606662 0.0 0.0 0.0 26.940967945119528" Properties=species:S:1:pos:R:3:forces:R:3 tau=tau76 tau_p=7 tau_q=6 stage=B constraint=xy_fixed_z_free force_label=raw_dft energy=-15499.24657183128 free_energy=-15499.24657183128 stress="0.009199939304298506 5.968024498796436e-05 -0.0018978317906172667 5.968024498796436e-05 0.010904039838108687 -0.001368054846647183 -0.0018978317906172667 -0.001368054846647183 -0.001943739671377239" pbc="T T T"
Sr       0.00003612       0.00009431      10.36898772       0.00068546       0.00090271      -0.06849239
Sr       2.75856694       2.36455593      15.28034033       0.18646746       0.09796237       0.03161403
Ti       1.97047269       1.97057450      11.79942768      -0.15620634      -0.09794849      -0.04566202
Ti       0.78791578       0.39403080      16.71713591       0.00578652       0.01133162       0.09780734
O        0.00000902       1.97050521      11.92771460      -0.18111802       0.07222203       0.14234013
O        2.75885292       0.39409860      16.86818489      -0.00418756      -0.00611357      -0.04518174
O        1.97049401       3.94093312      11.96107133       0.13106455      -0.12804119      -0.17653091
O        0.78828644       2.36457436      16.85918210      -0.01406316      -0.00298454      -0.01875954
O        1.97043419       1.97038596       9.98907732      -0.02288899      -0.01388061      -0.05338202
O        0.78825659       0.39404688      14.90419808       0.05446034       0.06654966       0.13624713
10
Lattice="3.940949890606662 0.0 0.0 0.0 3.940949890606662 0.0 0.0 0.0 26.940967945119528" Properties=species:S:1:pos:R:3:forces:R:3 tau=tau76 tau_p=7 tau_q=6 stage=B constraint=xy_fixed_z_free force_label=raw_dft energy=-15499.251031368925 free_energy=-15499.251031368925 stress="0.009052115928251395 5.2334984066368754e-05 -0.0018216247085557121 5.2334984066368754e-05 0.010845277750735923 -0.0013184743354264126 -0.0018216247085557121 -0.0013184743354264126 -0.0017931618224845292" pbc="T T T"
Sr       0.00003612       0.00009431      10.35829560       0.00078136       0.00090349      -0.13069303
Sr       2.75856694       2.36455593      15.29377881       0.17596681       0.09353159       0.04708076
Ti       1.97047269       1.97057450      11.78040776      -0.14911498      -0.09306134      -0.01664686
Ti       0.78791578       0.39403080      16.73524779       0.00557081       0.01088682       0.08550641
O        0.00000902       1.97050521      11.90532963      -0.17103210       0.06770692       0.17755858
O        2.75885292       0.39409860      16.88647974      -0.00393276      -0.00578678      -0.05574974
O        1.97049401       3.94093312      11.94682301       0.12467382      -0.12214411      -0.17023428
O        0.78828644       2.36457436      16.87649412      -0.01304038      -0.00281124      -0.02476538
O        1.97043419       1.97038596       9.97127595      -0.02185695      -0.01296582      -0.03731596
O        0.78825659       0.39404688      14.92118755       0.05198411       0.06374099       0.12525926
10
Lattice="3.940949890606662 0.0 0.0 0.0 3.940949890606662 0.0 0.0 0.0 26.940967945119528" Properties=species:S:1:pos:R:3:forces:R:3 tau=tau76 tau_p=7 tau_q=6 stage=B constraint=xy_fixed_z_free force_label=raw_dft energy=-15499.258803892557 free_energy=-15499.258803892557 stress="0.008931837280660266 3.9480777453576426e-05 -0.001709609479501379 3.9480777453576426e-05 0.010631347026394452 -0.0012266585739064675 -0.001709609479501379 -0.0012266585739064675 -0.0016187118755966333" pbc="T T T"
Sr       0.00003612       0.00009431      10.33692027       0.00092328       0.00081864      -0.21864378
Sr       2.75856694       2.36455593      15.31799556       0.16023012       0.08573781       0.07381714
Ti       1.97047269       1.97057450      11.74703396      -0.13720075      -0.08625048       0.03408023
Ti       0.78791578       0.39403080      16.76882525       0.00532244       0.01051581       0.04493697
O        0.00000902       1.97050521      11.87295058      -0.15615441       0.06117554       0.19926461
O        2.75885292       0.39409860      16.91649519      -0.00356226      -0.00510904      -0.04662387
O        1.97049401       3.94093312      11.91596659       0.11232841      -0.11073741      -0.14269263
O        0.78828644       2.36457436      16.90589490      -0.01146455      -0.00247417      -0.01245931
O        1.97043419       1.97038596       9.93941736      -0.01983478      -0.01161547      -0.00865330
O        0.78825659       0.39404688      14.95382030       0.04941300       0.05793904       0.07697369
10
Lattice="3.940949890606662 0.0 0.0 0.0 3.940949890606662 0.0 0.0 0.0 26.940967945119528" Properties=species:S:1:pos:R:3:forces:R:3 tau=tau76 tau_p=7 tau_q=6 stage=B constraint=xy_fixed_z_free force_label=raw_dft energy=-15499.267587319098 free_energy=-15499.267587319098 stress="0.008986926737572233 2.3872097995185745e-05 -0.0015801492557582562 2.3872097995185745e-05 0.010294383181616252 -0.001097198350163345 -0.0015801492557582562 -0.001097198350163345 -0.001424980618789549" pbc="T T T"
Sr       0.00003612       0.00009431      10.30082528       0.00073456       0.00066360      -0.29096557
Sr       2.75856694       2.36455593      15.35415693       0.14156648       0.07514795       0.10628426
Ti       1.97047269       1.97057450      11.70067676      -0.12200476      -0.07645484       0.08930933
Ti       0.78791578       0.39403080      16.81803851       0.00616345       0.00921638      -0.03445792
O        0.00000902       1.97050521      11.83549540      -0.13869045       0.05357099       0.17707393
O        2.75885292       0.39409860      16.95690872      -0.00319691      -0.00442975      -0.00337457
O        1.97049401       3.94093312      11.86560040       0.09503183      -0.09509688      -0.08756149
O        0.78828644       2.36457436      16.94684969      -0.00977585      -0.00207771       0.02945764
O        1.97043419       1.97038596       9.89378944      -0.01685332      -0.01000879       0.02972067
O        0.78825659       0.39404688      15.00297883       0.04702522       0.04946905      -0.01548601
10
Lattice="3.940949890606662 0.0 0.0 0.0 3.940949890606662 0.0 0.0 0.0 26.940967945119528" Properties=species:S:1:pos:R:3:forces:R:3 tau=tau76 tau_p=7 tau_q=6 stage=B constraint=xy_fixed_z_free force_label=raw_dft energy=-15499.27375246628 free_energy=-15499.27375246628 stress="0.009296345853894447 1.5608679458390678e-05 -0.0015039421736967019 1.5608679458390678e-05 0.010132787441341148 -0.0010026281157978012 -0.0015039421736967019 -0.0010026281157978012 -0.0012633848785144456" pbc="T T T"
Sr       0.00003612       0.00009431      10.26687849       0.00036638       0.00050394      -0.27665918
Sr       2.75856694       2.36455593      15.38338411       0.13028011       0.06766938       0.11243074
Ti       1.97047269       1.97057450      11.66874911      -0.11104080      -0.07009084       0.09986319
Ti       0.78791578       0.39403080      16.85394563       0.00621898       0.00822342      -0.07594987
O        0.00000902       1.97050521      11.81497558      -0.12829393       0.04915101       0.11543328
O        2.75885292       0.39409860      16.98540831      -0.00293131      -0.00396747       0.04108674
O        1.97049401       3.94093312      11.82420726       0.08280032      -0.08403574      -0.04033649
O        0.78828644       2.36457436      16.97698499      -0.00879549      -0.00181520       0.06742487
O        1.97043419       1.97038596       9.86071133      -0.01467560      -0.00895747       0.04771633
O        0.78825659       0.39404688      15.04007515       0.04607134       0.04331897      -0.09100934
10
Lattice="3.940949890606662 0.0 0.0 0.0 3.940949890606662 0.0 0.0 0.0 26.940967945119528" Properties=species:S:1:pos:R:3:forces:R:3 tau=tau76 tau_p=7 tau_q=6 stage=B constraint=xy_fixed_z_free force_label=raw_dft energy=-15499.279368351685 free_energy=-15499.279368351685 stress="0.00986652173293331 9.181576151994517e-06 -0.0014231443035591501 9.181576151994517e-06 0.010190631371098715 -0.0009098941966626566 -0.0014231443035591501 -0.0009098941966626566 -0.0009365207675034408" pbc="T T T"
Sr       0.00003612       0.00009431      10.22154107       0.00000463       0.00016686      -0.19633766
Sr       2.75856694       2.36455593      15.41937420       0.11885876       0.05994604       0.10029899
Ti       1.97047269       1.97057450      11.63529518      -0.10030413      -0.06433157       0.09649942
Ti       0.78791578       0.39403080      16.89244987       0.00595288       0.00806581      -0.10424281
O        0.00000902       1.97050521      11.79258073      -0.11750584       0.04465878       0.03476209
O        2.75885292       0.39409860      17.01871397      -0.00271071      -0.00335246       0.07495691
O        1.97049401       3.94093312      11.77867480       0.07111980      -0.07322322      -0.00431200
O        0.78828644       2.36457436      17.01248013      -0.00771305      -0.00167559       0.09303640
O        1.97043419       1.97038596       9.82470401      -0.01262026      -0.00805527       0.04603046
O        0.78825659       0.39404688      15.07950600       0.04491769       0.03780062      -0.14069154
10
Lattice="3.940949890606662 0.0 0.0 0.0 3.940949890606662 0.0 0.0 0.0 26.940967945119528" Properties=species:S:1:pos:R:3:forces:R:3 tau=tau76 tau_p=7 tau_q=6 stage=B constraint=xy_fixed_z_free force_label=raw_dft energy=-15499.283160666197 free_energy=-15499.283160666197 stress="0.010451388133815359 5.5089456911967096e-06 -0.0013754001075687787 5.5089456911967096e-06 0.01046699681327375 -0.0008575592125962879 -0.0013754001075687787 -0.0008575592125962879 -0.00047836011751891435" pbc="T T T"
Sr       0.00003612       0.00009431      10.18473086      -0.00040958      -0.00012187      -0.08569153
Sr       2.75856694       2.36455593      15.44669532       0.11166584       0.05538670       0.06785398
Ti       1.97047269       1.97057450      11.61594971      -0.09466545      -0.06013245       0.05274875
Ti       0.78791578       0.39403080      16.91522290       0.00634471       0.00683939      -0.08278104
O        0.00000902       1.97050521      11.77734318      -0.11073818       0.04188507      -0.01787919
O        2.75885292       0.39409860      17.04296855      -0.00259939      -0.00302722       0.06891225
O        1.97049401       3.94093312      11.74970680       0.06460514      -0.06699883       0.00832497
O        0.78828644       2.36457436      17.03852461      -0.00704122      -0.00147941       0.08145538
O        1.97043419       1.97038596       9.80200978      -0.01152394      -0.00753179       0.03288467
O        0.78825659       0.39404688      15.10216826       0.04436181       0.03518040      -0.12582850
10
Lattice="3.940949890606662 0.0 0.0 0.0 3.940949890606662 0.0 0.0 0.0 26.940967945119528" Properties=species:S:1:pos:R:3:forces:R:3 tau=tau76 tau_p=7 tau_q=6 stage=B constraint=xy_fixed_z_free force_label=raw_dft energy=-15499.285124783886 free_energy=-15499.285124783886 stress="0.010856295642118317 5.5089456911967096e-06 -0.0013377556453456011 5.5089456911967096e-06 0.010795697239515152 -0.000827260011294706 -0.0013377556453456011 -0.000827260011294706 2.1117625149587388e-05" pbc="T T T"
Sr       0.00003612       0.00009431      10.15751445      -0.00068340      -0.00037538       0.00647121
Sr       2.75856694       2.36455593      15.46734034       0.10631512       0.05261403       0.02614246
Ti       1.97047269       1.97057450      11.60385283      -0.09133741      -0.05756391       0.00372887
Ti       0.78791578       0.39403080      16.92834886       0.00659282       0.00623287      -0.04260832
O        0.00000902       1.97050521      11.76320729      -0.10573173       0.03988270      -0.03227917
O        2.75885292       0.39409860      17.06223562      -0.00249448      -0.00285187       0.03299831
O        1.97049401       3.94093312      11.73275050       0.06106576      -0.06351962       0.00744591
O        0.78828644       2.36457436      17.05888158      -0.00655040      -0.00138685       0.04178583
O        1.97043419       1.97038596       9.78743607      -0.01091510      -0.00712298       0.01113031
O        0.78825659       0.39404688      15.11375243       0.04373884       0.03409103      -0.05481566
10
Lattice="3.940949890606662 0.0 0.0 0.0 3.940949890606662 0.0 0.0 0.0 26.940967945119528" Properties=species:S:1:pos:R:3:forces:R:3 tau=tau76 tau_p=7 tau_q=6 stage=B constraint=xy_fixed_z_free force_label=raw_dft energy=-15499.285504926916 free_energy=-15499.285504926916 stress="0.010879249582498304 5.5089456911967096e-06 -0.00132306512350241 5.5089456911967096e-06 0.010912303256645484 -0.0008217510656035093 -0.00132306512350241 -0.0008217510656035093 0.00017904073496389307" pbc="T T T"
Sr       0.00003612       0.00009431      10.15120272      -0.00072119      -0.00041343       0.02170988
Sr       2.75856694       2.36455593      15.47330858       0.10441378       0.05198256       0.01247114
Ti       1.97047269       1.97057450      11.60024642      -0.09055220      -0.05681495      -0.00777964
Ti       0.78791578       0.39403080      16.93076645       0.00658460       0.00610586      -0.01316893
O        0.00000902       1.97050521      11.75607411      -0.10388439       0.03917153      -0.01891509
O        2.75885292       0.39409860      17.06896058      -0.00244332      -0.00280739       0.00496480
O        1.97049401       3.94093312      11.73016960       0.06056722      -0.06294163       0.00202012
O        0.78828644       2.36457436      17.06569567      -0.00637094      -0.00137091       0.01350600
O        1.97043419       1.97038596       9.78368535      -0.01084414      -0.00700960       0.00050239
O        0.78825659       0.39404688      15.11521048       0.04325033       0.03409823      -0.01531041
