10
Lattice="3.940949890606662 0.0 0.0 0.0 3.940949890606662 0.0 0.0 0.0 26.940967945119528" Properties=species:S:1:pos:R:3:forces:R:3 tau=tau40 tau_p=4 tau_q=0 stage=B constraint=xy_fixed_z_free force_label=raw_dft energy=-15497.561379264016 free_energy=-15497.561379264016 stress="0.020056234946416823 -0.0 0.013214124397950508 -0.0 0.004878171409554687 9.181576151994517e-07 0.013214124397950508 9.181576151994517e-07 -0.032492679844293396" pbc="T T T"
Sr       0.00003626       0.00009419      10.75260867       0.00461924       0.00003780       0.28293268
Sr       1.57628183       3.94093570      14.64522241      -0.65746193       0.00013678       4.61755138
Ti       1.97047258       1.97057465      12.38212169       0.34003071      -0.00064149      -2.30518785
Ti       3.54658061       1.97041071      16.28444791      -0.14983335      -0.00003445       0.31309095
O        0.00000906       1.97050529      12.45001441       1.55792988       0.00004654      -3.64413661
O        1.57656794       1.97047849      16.39256827       0.01764445       0.00001234      -0.29437743
O        1.97049386       3.94093294      12.44909065       0.21863581       0.00021546      -1.49188004
O        3.54695145       0.00000434      16.37955485      -0.04603714       0.00000797      -0.06431357
O        1.97043435       1.97038588      10.49176941       0.20218358       0.00021906       0.27952519
O        3.54692150       1.97042687      14.44792112      -1.48771099       0.00000000       2.30679504
10
Lattice="3.940949890606662 0.0 0.0 0.0 3.940949890606662 0.0 0.0 0.0 26.940967945119528" Properties=species:S:1:pos:R:3:forces:R:3 tau=tau40 tau_p=4 tau_q=0 stage=B constraint=xy_fixed_z_free force_label=raw_dft energy=-15498.33548925645 free_energy=-15498.33548925645 stress="0.015251516146078092 0.0 0.0098793759395461 0.0 0.003035429075849387 9.181576151994517e-07 0.0098793759395461 9.181576151994517e-07 -0.028916455933091532" pbc="T T T"
Sr       0.00003612       0.00009431      10.75843196       0.00259116       0.00000591       0.24078998
Sr       1.57628196       3.94093589      14.74025984      -0.38995587       0.00005682       2.81698367
Ti       1.97047269       1.97057450      12.33467723       0.32995481      -0.00055356      -1.39087194
Ti       3.54658072       1.97041077      16.29089186      -0.12003812       0.00004217       0.65783526
O        0.00000902       1.97050521      12.37501187       1.10239056       0.00001414      -2.44699987
O        1.57656794       1.97047857      16.38650954       0.01864693      -0.00000283      -0.01192863
O        1.97049401       3.94093312      12.41838519       0.02155433       0.00021572      -0.50653818
O        3.54695139       0.00000441      16.37823112      -0.03753836      -0.00006351       0.19182846
O        1.97043419       1.97038596      10.49752250       0.17074516       0.00022369      -0.40410157
O        3.54692153       1.97042684      14.49539886      -1.09835110       0.00006145       0.85300281
10
Lattice="3.940949890606662 0.0 0.0 0.0 3.940949890606662 0.0 0.0 0.0 26.940967945119528" Properties=species:S:1:pos:R:3:forces:R:3 tau=tau40 tau_p=4 tau_q=0 stage=B constraint=xy_fixed_z_free force_label=raw_dft energy=-15498.810172527903 free_energy=-15498.810172527903 stress="0.009606683127831864 -0.0 0.007309452774602835 -0.0 0.0005545671995804689 9.181576151994517e-07 0.007309452774602835 9.181576151994517e-07 -0.025566098795228736" pbc="T T T"
Sr       0.00003612       0.00009431      10.76715205       0.00004679      -0.00003600      -0.00575104
Sr       1.57628196       3.94093589      14.84480070      -0.21699082       0.00000771       1.18099201
Ti       1.97047269       1.97057450      12.28301184       0.30639759      -0.00051936      -0.59141235
Ti       3.54658072       1.97041077      16.31382694      -0.09519098       0.00010464       0.34533566
O        0.00000902       1.97050521      12.28491010       0.76822351       0.00004037      -1.36196862
O        1.57656794       1.97047857      16.38553611       0.01565493      -0.00002648       0.41015086
O        1.97049401       3.94093312      12.39830946      -0.09212648       0.00023011       0.06277965
O        3.54695139       0.00000441      16.38461860      -0.02930980      -0.00011081       0.56166391
O        1.97043419       1.97038596      10.48434495       0.14261755       0.00021880      -0.91828646
O        3.54692153       1.97042684      14.52880920      -0.79932255       0.00009127       0.31649663
10
Lattice="3.940949890606662 0.0 0.0 0.0 3.940949890606662 0.0 0.0 0.0 26.940967945119528" Properties=species:S:1:pos:R:3:forces:R:3 tau=tau40 tau_p=4 tau_q=0 stage=B constraint=xy_fixed_z_free force_label=raw_dft energy=-15499.040548865702 free_energy=-15499.040548865702 stress="0.004278614486829445 -0.0 0.005434574924365555 -0.0 -0.0020520822699707747 0.0 0.005434574924365555 0.0 -0.021961411997955683" pbc="T T T"
Sr       0.00003612       0.00009431      10.77123148      -0.00282436      -0.00010182      -0.45943659
Sr       1.57628196       3.94093589      14.94605229      -0.11923182      -0.00002905      -0.09229412
Ti       1.97047269       1.97057450      12.23260654       0.28450491      -0.00054096      -0.37946423
Ti       3.54658072       1.97041077      16.33758685      -0.07338931       0.00018075       0.19033183
O        0.00000902       1.97050521      12.18500489       0.53252303       0.00008048      -0.33414854
O        1.57656794       1.97047857      16.40048149       0.01297430      -0.00004834       0.74273874
O        1.97049401       3.94093312      12.38865191      -0.14625155       0.00025017       0.32290947
O        3.54695139       0.00000441      16.40912929      -0.02296458      -0.00014424       0.82264708
O        1.97043419       1.97038596      10.44361394       0.11591973       0.00024580      -0.81512789
O        3.54692153       1.97042684      14.56096128      -0.58125983       0.00010722       0.00184400
10
Lattice="3.940949890606662 0.0 0.0 0.0 3.940949890606662 0.0 0.0 0.0 26.940967945119528" Properties=species:S:1:pos:R:3:forces:R:3 tau=tau40 tau_p=4 tau_q=0 stage=B constraint=xy_fixed_z_free force_label=raw_dft energy=-15499.126746774544 free_energy=-15499.126746774544 stress="0.0027856902045151366 -0.0 0.0046890309408236 -0.0 -0.0021622611837947086 0.0 0.0046890309408236 0.0 -0.01937496199593883" pbc="T T T"
Sr       0.00003612       0.00009431      10.76026511      -0.00403586      -0.00013318      -0.65677210
Sr       1.57628196       3.94093589      14.99021811      -0.08826674      -0.00004859      -0.46837349
Ti       1.97047269       1.97057450      12.19818560       0.27166687      -0.00054122      -0.27829518
Ti       3.54658072       1.97041077      16.35279942      -0.06505868       0.00019335       0.25710157
O        0.00000902       1.97050521      12.13170306       0.44281827       0.00011261       0.05992599
O        1.57656794       1.97047857      16.42598774       0.01153731      -0.00005245       0.74956990
O        1.97049401       3.94093312      12.39098628      -0.15900833       0.00023551       0.24640887
O        3.54695139       0.00000441      16.44083006      -0.02037214      -0.00014167       0.78345190
O        1.97043419       1.97038596      10.40711430       0.10225303       0.00026482      -0.61966954
O        3.54692153       1.97042684      14.57723028      -0.49153373       0.00011056      -0.07334843
10
Lattice="3.940949890606662 0.0 0.0 0.0 3.940949890606662 0.0 0.0 0.0 26.940967945119528" Properties=species:S:1:pos:R:3:forces:R:3 tau=tau40 tau_p=4 tau_q=0 stage=B constraint=xy_fixed_z_free force_label=raw_dft energy=-15499.226811876717 free_energy=-15499.226811876717 stress="0.002818743878662317 -0.0 0.004005921675115208 -0.0 -0.0004333703943741412 0.0 0.004005921675115208 0.0 -0.01508992040580299" pbc="T T T"
Sr       0.00003612       0.00009431      10.72976196      -0.00491004      -0.00015144      -0.76542692
Sr       1.57628196       3.94093589      15.02960856      -0.06368314      -0.00006505      -0.62478475
Ti       1.97047269       1.97057450      12.15115602       0.25592118      -0.00052965      -0.11025919
Ti       3.54658072       1.97041077      16.37781848      -0.05915131       0.00019078       0.33881869
O        0.00000902       1.97050521      12.07307105       0.36386149       0.00013344       0.32867852
O        1.57656794       1.97047857      16.47312931       0.00989618      -0.00005065       0.59327691
O        1.97049401       3.94093312      12.39724952      -0.16638868       0.00020132      -0.00214301
O        3.54695139       0.00000441      16.49557762      -0.01753492      -0.00011364       0.57428392
O        1.97043419       1.97038596      10.35262727       0.08746430       0.00028411      -0.33981731
O        3.54692153       1.97042684      14.59532017      -0.40547557       0.00010053       0.00737290
10
Lattice="3.940949890606662 0.0 0.0 0.0 3.940949890606662 0.0 0.0 0.0 26.940967945119528" Properties=species:S:1:pos:R:3:forces:R:3 tau=tau40 tau_p=4 tau_q=0 stage=B constraint=xy_fixed_z_free force_label=raw_dft energy=-15499.325325521839 free_energy=-15499.325325521839 stress="0.005010386106143408 -0.0 0.0033916742305467747 -0.0 0.003975622473813626 0.0 0.0033916742305467747 0.0 -0.008551720027967693" pbc="T T T"
Sr       0.00003612       0.00009431      10.66805819      -0.00499771      -0.00014372      -0.70973632
Sr       1.57628196       3.94093589      15.05980289      -0.04573710      -0.00008125      -0.49829676
Ti       1.97047269       1.97057450      12.09087442       0.23776868      -0.00046820       0.08741159
Ti       3.54658072       1.97041077      16.41967194      -0.05491131       0.00015298       0.42762948
O        0.00000902       1.97050521      12.01099280       0.29502946       0.00012161       0.41167964
O        1.57656794       1.97047857      16.54815992       0.00828307      -0.00003754       0.24831817
O        1.97049401       3.94093312      12.40219477      -0.16831264       0.00012367      -0.39790495
O        3.54695139       0.00000441      16.57911450      -0.01477922      -0.00006402       0.17941286
O        1.97043419       1.97038596      10.27641853       0.07176386       0.00030468       0.02782679
O        3.54692153       1.97042684      14.62003201      -0.32410709       0.00009179       0.22365924
10
Lattice="3.940949890606662 0.0 0.0 0.0 3.940949890606662 0.0 0.0 0.0 26.940967945119528" Properties=species:S:1:pos:R:3:forces:R:3 tau=tau40 tau_p=4 tau_q=0 stage=B constraint=xy_fixed_z_free force_label=raw_dft energy=-15499.373313885742 free_energy=-15499.373313885742 stress="0.00760326321146666 -0.0 0.003203451919430887 -0.0 0.007644580304150635 9.181576151994517e-07 0.003203451919430887 9.181576151994517e-07 -0.004543962037622086" pbc="T T T"
Sr       0.00003612       0.00009431      10.61671951      -0.00437473      -0.00011133      -0.50641579
Sr       1.57628196       3.94093589      15.06041413      -0.04309657      -0.00008228      -0.24905891
Ti       1.97047269       1.97057450      12.06265046       0.23025951      -0.00041163       0.13121779
Ti       3.54658072       1.97041077      16.45254357      -0.05482235       0.00011133       0.39088610
O        0.00000902       1.97050521      11.99028901       0.27197181       0.00008202       0.29429155
O        1.57656794       1.97047857      16.59483062       0.00749399      -0.00002854       0.02870097
O        1.97049401       3.94093312      12.39515271      -0.16534250       0.00007199      -0.57166679
O        3.54695139       0.00000441      16.62842911      -0.01322421      -0.00002777      -0.04792948
O        1.97043419       1.97038596      10.23585692       0.06509673       0.00031059       0.17892770
O        3.54692153       1.97042684      14.63843393      -0.29396168       0.00008587       0.35104686
10
Lattice="3.940949890606662 0.0 0.0 0.0 3.940949890606662 0.0 0.0 0.0 26.940967945119528" Properties=species:S:1:pos:R:3:forces:R:3 tau=tau40 tau_p=4 tau_q=0 stage=B constraint=xy_fixed_z_free force_label=raw_dft energy=-15499.41364333354 free_energy=-15499.41364333354 stress="0.010573503096636886 -0.0 0.0031281629949845317 -0.0 0.011105116355837368 9.181576151994517e-07 0.0031281629949845317 9.181576151994517e-07 -0.0013625459009559864" pbc="T T T"
Sr       0.00003612       0.00009431      10.55911144      -0.00309407      -0.00007276      -0.19264222
Sr       1.57628196       3.94093589      15.04991923      -0.04561523      -0.00008253       0.05701293
Ti       1.97047269       1.97057450      12.04497059       0.22595343      -0.00036561       0.07380429
Ti       3.54658072       1.97041077      16.49087805      -0.05577083       0.00008125       0.25457675
O        0.00000902       1.97050521      11.98447065       0.25933046       0.00002365       0.10871884
O        1.57656794       1.97047857      16.63484692       0.00656223      -0.00001697      -0.11549575
O        1.97049401       3.94093312      12.37317169      -0.15973364       0.00003445      -0.60330524
O        3.54695139       0.00000441      16.66819160      -0.01183916      -0.00000489      -0.18076861
O        1.97043419       1.97038596      10.20681479       0.06014530       0.00031393       0.21048465
O        3.54692153       1.97042684      14.66294498      -0.27593850       0.00008973       0.38761411
10
Lattice="3.940949890606662 0.0 0.0 0.0 3.940949890606662 0.0 0.0 0.0 26.940967945119528" Properties=species:S:1:pos:R:3:forces:R:3 tau=tau40 tau_p=4 tau_q=0 stage=B constraint=xy_fixed_z_free force_label=raw_dft energy=-15499.43785439022 free_energy=-15499.43785439022 stress="0.012381355440964605 -0.0 0.0030813369566093595 -0.0 0.01274494585658359 9.181576151994517e-07 0.0030813369566093595 9.181576151994517e-07 -2.570841322558465e-05" pbc="T T T"
Sr       0.00003612       0.00009431      10.51812295      -0.00210111      -0.00004474       0.05833550
Sr       1.57628196       3.94093589      15.04309946      -0.04818890      -0.00007610       0.24076427
Ti       1.97047269       1.97057450      12.03702353       0.22279020      -0.00033939      -0.03091803
Ti       3.54658072       1.97041077      16.52180394      -0.05677021       0.00005374       0.08978729
O        0.00000902       1.97050521      11.98565220       0.25153668      -0.00002134       0.00242892
O        1.57656794       1.97047857      16.65651165       0.00572096      -0.00001080      -0.12576988
O        1.97049401       3.94093312      12.34291909      -0.15417466       0.00003034      -0.49963168
O        3.54695139       0.00000441      16.68771518      -0.01065825       0.00000257      -0.17502913
O        1.97043419       1.97038596      10.19449970       0.05688257       0.00031445       0.12799594
O        3.54692153       1.97042684      14.68797226      -0.26503780       0.00009127       0.31203705
10
Lattice="3.940949890606662 0.0 0.0 0.0 3.940949890606662 0.0 0.0 0.0 26.940967945119528" Properties=species:S:1:pos:R:3:forces:R:3 tau=tau40 tau_p=4 tau_q=0 stage=B constraint=xy_fixed_z_free force_label=raw_dft energy=-15499.45498545299 free_energy=-15499.45498545299 stress="0.01302865655968022 -0.0 0.0029748306732462234 -0.0 0.013003866304069835 9.181576151994517e-07 0.0029748306732462234 9.181576151994517e-07 0.00014598706081671281" pbc="T T T"
Sr       0.00003612       0.00009431      10.49111201      -0.00161440      -0.00003574       0.21102381
Sr       1.57628196       3.94093589      15.04778804      -0.04804852      -0.00007379       0.29629161
Ti       1.97047269       1.97057450      12.02873570       0.21651568      -0.00033373      -0.12084416
Ti       3.54658072       1.97041077      16.54699617      -0.05589064       0.00005374      -0.03409900
O        0.00000902       1.97050521      11.98407096       0.24086917      -0.00004191      -0.01416549
O        1.57656794       1.97047857      16.66910138       0.00502728      -0.00000617      -0.06370294
O        1.97049401       3.94093312      12.30768621      -0.14860154       0.00003677      -0.34299159
O        3.54695139       0.00000441      16.69767373      -0.00944186      -0.00000591      -0.10091297
O        1.97043419       1.97038596      10.18770492       0.05339667       0.00031265       0.00072994
O        3.54692153       1.97042684      14.71445085      -0.25221185       0.00009385       0.16867054
10
Lattice="3.940949890606662 0.0 0.0 0.0 3.940949890606662 0.0 0.0 0.0 26.940967945119528" Properties=species:S:1:pos:R:3:forces:R:3 tau=tau40 tau_p=4 tau_q=0 stage=B constraint=xy_fixed_z_free force_label=raw_dft energy=-15499.469314015334 free_energy=-15499.469314015334 stress="0.012730255334740398 -0.0 0.0027792631012087403 -0.0 0.012361155973430219 9.181576151994517e-07 0.0027792631012087403 9.181576151994517e-07 -0.0003066646434766169" pbc="T T T"
Sr       0.00003612       0.00009431      10.47355777      -0.00152389      -0.00003548       0.25782637
Sr       1.57628196       3.94093589      15.06691809      -0.04463846      -0.00007482       0.23840168
Ti       1.97047269       1.97057450      12.01353202       0.20486524      -0.00032447      -0.16265030
Ti       3.54658072       1.97041077      16.56961893      -0.05288888       0.00005296      -0.09414994
O        0.00000902       1.97050521      11.97549309       0.22467456      -0.00005425       0.03513721
O        1.57656794       1.97047857      16.68055443       0.00444878      -0.00000591       0.02761313
O        1.97049401       3.94093312      12.26812169      -0.14197889       0.00005374      -0.18401925
O        3.54695139       0.00000441      16.70656619      -0.00811183      -0.00002468      -0.00354812
O        1.97043419       1.97038596      10.17784416       0.04885327       0.00031213      -0.11895903
O        3.54692153       1.97042684      14.74311361      -0.23369991       0.00010079       0.00434799
10
Lattice="3.940949890606662 0.0 0.0 0.0 3.940949890606662 0.0 0.0 0.0 26.940967945119528" Properties=species:S:1:pos:R:3:forces:R:3 tau=tau40 tau_p=4 tau_q=0 stage=B constraint=xy_fixed_z_free force_label=raw_dft energy=-15499.480359116047 free_energy=-15499.480359116047 stress="0.011881877698296104 -0.0 0.0025304423874896887 -0.0 0.011354855227171617 9.181576151994517e-07 0.0025304423874896887 9.181576151994517e-07 -0.0008061423861451186" pbc="T T T"
Sr       0.00003612       0.00009431      10.46250287      -0.00175632      -0.00004294       0.20375247
Sr       1.57628196       3.94093589      15.09707079      -0.03938004      -0.00007893       0.11191575
Ti       1.97047269       1.97057450      11.98969280       0.18871769      -0.00033270      -0.14856734
Ti       3.54658072       1.97041077      16.59005850      -0.04795262       0.00007225      -0.08665363
O        0.00000902       1.97050521      11.96037649       0.20562243      -0.00005759       0.10606958
O        1.57656794       1.97047857      16.69613571       0.00401632      -0.00000977       0.09846991
O        1.97049401       3.94093312      12.22941327      -0.13419873       0.00007071      -0.07586965
O        3.54695139       0.00000441      16.72009550      -0.00681034      -0.00004037       0.06767941
O        1.97043419       1.97038596      10.15980455       0.04354189       0.00031779      -0.16806864
O        3.54692153       1.97042684      14.77016947      -0.21180028       0.00010130      -0.10872784
10
Lattice="3.940949890606662 0.0 0.0 0.0 3.940949890606662 0.0 0.0 0.0 26.940967945119528" Properties=species:S:1:pos:R:3:forces:R:3 tau=tau40 tau_p=4 tau_q=0 stage=B constraint=xy_fixed_z_free force_label=raw_dft energy=-15499.487610677732 free_energy=-15499.487610677732 stress="0.011183159753129323 -0.0 0.0022981485108442275 -0.0 0.010630428868779252 9.181576151994517e-07 0.0022981485108442275 9.181576151994517e-07 -0.0007648252934611432" pbc="T T T"
Sr       0.00003612       0.00009431      10.45256064      -0.00204171      -0.00006145       0.11010364
Sr       1.57628196       3.94093589      15.12818694      -0.03470372      -0.00008433       0.00015992
Ti       1.97047269       1.97057450      11.96097564       0.17240404      -0.00032679      -0.10453231
Ti       3.54658072       1.97041077      16.60919548      -0.04325290       0.00008022      -0.05312850
O        0.00000902       1.97050521      11.94418922       0.18870149      -0.00005322       0.14358660
O        1.57656794       1.97047857      16.71778295       0.00371653      -0.00001131       0.11427011
O        1.97049401       3.94093312      12.19562528      -0.12612855       0.00007508      -0.03417356
O        3.54695139       0.00000441      16.74006564      -0.00572250      -0.00004628       0.08248459
O        1.97043419       1.97038596      10.13437127       0.03850381       0.00032499      -0.13267047
O        3.54692153       1.97042684      14.79236689      -0.19147622       0.00010310      -0.12610027
10
Lattice="3.940949890606662 0.0 0.0 0.0 3.940949890606662 0.0 0.0 0.0 26.940967945119528" Properties=species:S:1:pos:R:3:forces:R:3 tau=tau40 tau_p=4 tau_q=0 stage=B constraint=xy_fixed_z_free force_label=raw_dft energy=-15499.491652928806 free_energy=-15499.491652928806 stress="0.010965556398327051 -0.0 0.002124616721571531 -0.0 0.010356817899449816 9.181576151994517e-07 0.002124616721571531 9.181576151994517e-07 -0.00025983860510144484" pbc="T T T"
Sr       0.00003612       0.00009431      10.44144831      -0.00226463      -0.00005991       0.03724834
Sr       1.57628196       3.94093589      15.15228478      -0.03184748      -0.00008690      -0.04939295
Ti       1.97047269       1.97057450      11.93347746       0.15866458      -0.00033784      -0.04743248
Ti       3.54658072       1.97041077      16.62671854      -0.03970812       0.00008433      -0.01909970
O        0.00000902       1.97050521      11.93287799       0.17694615      -0.00005631       0.12566370
O        1.57656794       1.97047857      16.74199454       0.00353295      -0.00000977       0.08049944
O        1.97049401       3.94093312      12.16686195      -0.11868161       0.00007842      -0.03228868
O        3.54695139       0.00000441      16.76238381      -0.00491415      -0.00004525       0.05089679
O        1.97043419       1.97038596      10.10784675       0.03440367       0.00033347      -0.06062378
O        3.54692153       1.97042684      14.80942584      -0.17613137       0.00010002      -0.08547067
10
Lattice="3.940949890606662 0.0 0.0 0.0 3.940949890606662 0.0 0.0 0.0 26.940967945119528" Properties=species:S:1:pos:R:3:forces:R:3 tau=tau40 tau_p=4 tau_q=0 stage=B constraint=xy_fixed_z_free force_label=raw_dft energy=-15499.493164929352 free_energy=-15499.493164929352 stress="0.011126233980986956 -0.0 0.0020621820037379683 -0.0 0.010344881850452223 9.181576151994517e-07 0.0020621820037379683 9.181576151994517e-07 0.0001918949415766854" pbc="T T T"
Sr       0.00003612       0.00009431      10.43550534      -0.00235256      -0.00006196       0.01145992
Sr       1.57628196       3.94093589      15.16112380      -0.03125484      -0.00009127      -0.04414276
Ti       1.97047269       1.97057450      11.91957048       0.15240857      -0.00032782      -0.01135913
Ti       3.54658072       1.97041077      16.63548145      -0.03875501       0.00008176      -0.00422432
O        0.00000902       1.97050521      11.93196856       0.17377778      -0.00006402       0.07898403
O        1.57656794       1.97047857      16.75612550       0.00353887      -0.00000951       0.03983076
O        1.97049401       3.94093312      12.15076940      -0.11471157       0.00007919      -0.03298134
O        3.54695139       0.00000441      16.77459785      -0.00448632      -0.00004371       0.01620746
O        1.97043419       1.97038596      10.09379523       0.03255814       0.00034041      -0.01266911
O        3.54692153       1.97042684      14.81638235      -0.17072305       0.00009719      -0.04110603
10
Lattice="3.940949890606662 0.0 0.0 0.0 3.940949890606662 0.0 0.0 0.0 26.940967945119528" Properties=species:S:1:pos:R:3:forces:R:3 tau=tau40 tau_p=4 tau_q=0 stage=B constraint=xy_fixed_z_free force_label=raw_dft energy=-15499.493858003298 free_energy=-15499.493858003298 stress="0.011360364172862817 -0.0 0.002069527264659564 -0.0 0.01033294580145463 9.181576151994517e-07 0.002069527264659564 9.181576151994517e-07 0.0003966440897661631" pbc="T T T"
Sr       0.00003612       0.00009431      10.43583806      -0.00241709      -0.00006119       0.00603309
Sr       1.57628196       3.94093589      15.16009834      -0.03180326      -0.00009050      -0.02316127
Ti       1.97047269       1.97057450      11.91682869       0.15112302      -0.00033296       0.00163702
Ti       3.54658072       1.97041077      16.63644320      -0.03901109       0.00007970      -0.00028822
O        0.00000902       1.97050521      11.93782310       0.17614011      -0.00006736       0.03347602
O        1.57656794       1.97047857      16.76019546       0.00361857      -0.00000900       0.01214666
O        1.97049401       3.94093312      12.14449488      -0.11349158       0.00008305      -0.02308774
O        3.54695139       0.00000441      16.77685821      -0.00436959      -0.00003959      -0.00398341
O        1.97043419       1.97038596      10.09086385       0.03217710       0.00034221       0.00831546
O        3.54692153       1.97042684      14.81587617      -0.17196618       0.00009565      -0.01108763
10
Lattice="3.940949890606662 0.0 0.0 0.0 3.940949890606662 0.0 0.0 0.0 26.940967945119528" Properties=species:S:1:pos:R:3:forces:R:3 tau=tau40 tau_p=4 tau_q=0 stage=B constraint=xy_fixed_z_free force_label=raw_dft energy=-15499.494179505798 free_energy=-15499.494179505798 stress="0.011523796228368318 -0.0 0.0021126806725739384 -0.0 0.010255820561777877 9.181576151994517e-07 0.0021126806725739384 9.181576151994517e-07 0.00036267225800378346" pbc="T T T"
Sr       0.00003612       0.00009431      10.44060671      -0.00246157      -0.00006068       0.00624444
Sr       1.57628196       3.94093589      15.15429401      -0.03275997      -0.00008973      -0.00454185
Ti       1.97047269       1.97057450      11.92078304       0.15259369      -0.00033424       0.00255002
Ti       3.54658072       1.97041077      16.63237616      -0.03973768       0.00007713      -0.00000154
O        0.00000902       1.97050521      11.94620172       0.18117150      -0.00006865       0.00085129
O        1.57656794       1.97047857      16.75742833       0.00370547      -0.00000874      -0.00068391
O        1.97049401       3.94093312      12.14496306      -0.11401788       0.00008665      -0.00785292
O        3.54695139       0.00000441      16.77260084      -0.00445675      -0.00003857      -0.00980259
O        1.97043419       1.97038596      10.09494894       0.03265404       0.00034119       0.00919864
O        3.54692153       1.97042684      14.81111715      -0.17669084       0.00009565       0.00403843
