10
Lattice="3.940949890606662 0.0 0.0 0.0 3.940949890606662 0.0 0.0 0.0 26.940967945119528" Properties=species:S:1:pos:R:3:forces:R:3 tau=tau78 tau_p=7 tau_q=8 stage=A constraint=rigid_scf force_label=raw_dft energy=-15498.233334864224 free_energy=-15498.233334864224 stress="0.01481998206693435 0.0019079315243844606 -0.012774326900269972 0.0019079315243844606 0.009299100326740048 -0.0068402742332359144 -0.012774326900269972 -0.0068402742332359144 -0.015698658904680224" pbc="T T T"
Sr       0.00003626       0.00009419      10.75260867      -0.00647378       0.00350596       0.40517089
Sr       2.75856679       3.15274573      14.64522241       1.04581035       1.03065807       3.41164718
Ti       1.97047258       1.97057465      12.38212169      -0.88886327      -1.21097056      -2.46081106
Ti       0.78791569       1.18222073      16.28444791       0.12365284       0.04557692      -0.19080491
O        0.00000906       1.97050529      12.45001441      -1.45951808       0.83275769      -1.44994329
O        2.75885291       1.18228851      16.39256827      -0.01664275      -0.07806229      -0.16383018
O        1.97049386       3.94093294      12.44909065       0.35568435      -0.66647673      -0.76780622
O        0.78828653       3.15276425      16.37955485      -0.00328150      -0.00782361      -0.04787214
O        1.97043435       1.97038588      10.49176941      -0.22259300      -0.14808474       0.32707672
O        0.78825658       1.18223689      14.44792112       1.07222509       0.19891957       0.93717276
