10
Lattice="3.940949890606662 0.0 0.0 0.0 3.940949890606662 0.0 0.0 0.0 26.940967945119528" Properties=species:S:1:pos:R:3:forces:R:3 tau=tau72 tau_p=7 tau_q=2 stage=A constraint=rigid_scf force_label=raw_dft energy=-15498.233530650132 free_energy=-15498.233530650132 stress="0.014812636806012754 -0.0019079315243844606 -0.012774326900269972 -0.0019079315243844606 0.009289918750588053 0.006842110548466314 -0.012774326900269972 0.006842110548466314 -0.01570875863844742" pbc="T T T"
Sr       0.00003626       0.00009419      10.75260867      -0.00645527      -0.00354709       0.40466541
Sr       2.75856679       0.78817579      14.64522241       1.04559592      -1.03062593       3.41067813
Ti       1.97047258       1.97057465      12.38212169      -0.88874500       1.21063915      -2.46050484
Ti       0.78791569       2.75860069      16.28444791       0.12368883      -0.04563374      -0.18993716
O        0.00000906       1.97050529      12.45001441      -1.45972814      -0.83306082      -1.45028525
O        2.75885291       2.75866847      16.39256827      -0.01663401       0.07807129      -0.16348334
O        1.97049386       3.94093294      12.44909065       0.35576277       0.66649190      -0.76761288
O        0.78828653       0.78819431      16.37955485      -0.00325759       0.00778993      -0.04746616
O        1.97043435       1.97038588      10.49176941      -0.22266422       0.14863933       0.32666200
O        0.78825658       2.75861684      14.44792112       1.07243670      -0.19876401       0.93728434
