10
Lattice="3.940949890606662 0.0 0.0 0.0 3.940949890606662 0.0 0.0 0.0 26.940967945119528" Properties=species:S:1:pos:R:3:forces:R:3 tau=tau29 tau_p=2 tau_q=9 stage=A constraint=rigid_scf force_label=raw_dft energy=-15499.600670984444 free_energy=-15499.600670984444 stress="0.011259366835190876 -0.000892449201973867 0.01312965389735216 -0.000892449201973867 0.008561819761734887 -0.005569544093799874 0.01312965389735216 -0.005569544093799874 -0.006722750058490385" pbc="T T T"
Sr       0.00003626       0.00009419      10.75260867       0.00034530       0.00202911       0.19544498
Sr       0.78809185       3.54684071      14.64522241      -0.70669059       0.45159139       1.63899008
Ti       1.97047258       1.97057465      12.38212169       0.59853405      -0.55439823      -0.63574768
Ti       2.75839063       1.57631572      16.28444791      -0.12456635       0.03776848      -0.01522479
O        0.00000906       1.97050529      12.45001441       1.64865228       0.40855729      -1.02825075
O        0.78837796       1.57638350      16.39256827      -0.00159177      -0.00591431      -0.08287437
O        1.97049386       3.94093294      12.44909065      -0.27755701      -0.67093143      -0.40659143
O        2.75876148       3.54685924      16.37955485      -0.03961247       0.00851575      -0.01156122
O        1.97043435       1.97038588      10.49176941       0.27110355      -0.12740253       0.17301879
O        2.75873153       1.57633188      14.44792112      -1.36861698       0.45018448       0.17279664
