10
Lattice="3.940949890606662 0.0 0.0 0.0 3.940949890606662 0.0 0.0 0.0 26.940967945119528" Properties=species:S:1:pos:R:3:forces:R:3 tau=tau16 tau_p=1 tau_q=6 stage=A constraint=rigid_scf force_label=raw_dft energy=-15497.559233102169 free_energy=-15497.559233102169 stress="0.005611779344099049 -0.0009548839198074298 0.0005683395638084606 -0.0009548839198074298 0.01954206668190513 -0.01199113845450484 0.0005683395638084606 -0.01199113845450484 -0.02912304139651141" pbc="T T T"
Sr       0.00003626       0.00009419      10.75260867      -0.00726028      -0.00676354       0.34234419
Sr       0.39399686       2.36455575      14.64522241      -0.58158225       0.68032521       4.49342726
Ti       1.97047258       1.97057465      12.38212169       0.89384890      -0.39746092      -2.60049730
Ti       2.36429564       0.39403075      16.28444791       0.02687857       0.13073982       0.14128932
O        0.00000906       1.97050529      12.45001441      -0.04378640      -0.10550522      -1.30141734
O        0.39428297       0.39409854      16.39256827       0.00148276       0.03527065      -0.08576480
O        1.97049386       3.94093294      12.44909065      -0.81749202      -1.40787953      -3.14343638
O        2.36466649       2.36457427      16.37955485       0.08849454      -0.01560840      -0.24677422
O        1.97043435       1.97038588      10.49176941       0.06296143      -0.18561616       0.31313645
O        2.36463654       0.39404691      14.44792112       0.37645475       1.27249835       2.08769283
