Sr Ti O
 1.0000000000000000
     3.9409498906066620    0.0000000000000000    0.0000000000000000
     0.0000000000000000    3.9409498906066620    0.0000000000000000
     0.0000000000000000    0.0000000000000000   26.9409679451195281
 Sr  Ti  O
   2   2   6
Cartesian
  0.0000361212000000  0.0000943054000000 10.3544546293999993
  3.5467569191999999  1.9704609346999999 15.2538053909000002
  1.9704726885999999  1.9705745045000000 11.8180736725000006
  1.5761057639000000  3.9408857300000002 16.7241561840000017
  0.0000090208000000  1.9705052130000000 12.0305532808999995
  3.5470429030999999  0.0000036085000000 16.8629429014999985
  1.9704940097000001  3.9409331233999998 11.8748220919000005
  1.5764764277000001  1.9704793643000000 16.8539607521000008
  1.9704341934000000  1.9703859550000000  9.9971169923000005
  1.5764465754999999  3.9409018012999999 14.9054340674999999
