10
Lattice="3.940949890606662 0.0 0.0 0.0 3.940949890606662 0.0 0.0 0.0 26.940967945119528" Properties=species:S:1:pos:R:3:forces:R:3 tau=tau95 tau_p=9 tau_q=5 stage=B constraint=xy_fixed_z_free force_label=raw_dft energy=-15497.112995659012 free_energy=-15497.112995659012 stress="0.00462200543491404 0.0 0.0007060632060883783 0.0 0.022059654862782028 1.8363152303989035e-06 0.0007060632060883783 1.8363152303989035e-06 -0.03505984853639106" pbc="T T T"
Sr       0.00003626       0.00009419      10.75260867       0.00922923      -0.00007585       0.35747076
Sr       3.54675677       1.97046076      14.64522241       0.60816566      -0.00022214       5.12425694
Ti       1.97047258       1.97057465      12.38212169      -0.95150589       0.00090374      -3.07018385
Ti       1.57610567       3.94088565      16.28444791      -0.05796089       0.00006762       0.20703705
O        0.00000906       1.97050529      12.45001441       0.20364011      -0.00016275      -1.55724905
O        3.54704288       0.00000355      16.39256827      -0.00337946       0.00000540      -0.09035191
O        1.97049386       3.94093294      12.44909065       0.92462886      -0.00061244      -3.65373942
O        1.57647651       1.97047928      16.37955485      -0.10153852      -0.00007765      -0.28448254
O        1.97043435       1.97038588      10.49176941      -0.05601534       0.00019849       0.34363231
O        1.57644656       3.94090181      14.44792112      -0.57526376      -0.00002443       2.62361023
10
Lattice="3.940949890606662 0.0 0.0 0.0 3.940949890606662 0.0 0.0 0.0 26.940967945119528" Properties=species:S:1:pos:R:3:forces:R:3 tau=tau95 tau_p=9 tau_q=5 stage=B constraint=xy_fixed_z_free force_label=raw_dft energy=-15498.046812936893 free_energy=-15498.046812936893 stress="0.0029518767328662373 0.0 -0.000579357455190854 0.0 0.015705086007986622 1.8363152303989035e-06 -0.000579357455190854 1.8363152303989035e-06 -0.03219795124981437" pbc="T T T"
Sr       0.00003612       0.00009431      10.75996608       0.01011266      -0.00008767       0.33576242
Sr       3.54675692       1.97046093      14.75068871       0.55614684      -0.00017406       3.05595280
Ti       1.97047269       1.97057450      12.31893230      -0.65741282       0.00065717      -1.51371590
Ti       1.57610576       3.94088573      16.28870909      -0.03751162       0.00012624       0.74024040
O        0.00000902       1.97050521      12.41796360      -0.03948906      -0.00017638      -0.58473776
O        3.54704290       0.00000361      16.39070873      -0.00261147      -0.00000309       0.15547949
O        1.97049401       3.94093312      12.37389040       0.63973700      -0.00044197      -2.47665343
O        1.57647643       1.97047936      16.37369967      -0.08592575      -0.00013781       0.02562439
O        1.97043419       1.97038596      10.49884193      -0.05503729       0.00022034      -0.64389602
O        1.57644658       3.94090180      14.50191945      -0.32800823       0.00001671       0.90594388
10
Lattice="3.940949890606662 0.0 0.0 0.0 3.940949890606662 0.0 0.0 0.0 26.940967945119528" Properties=species:S:1:pos:R:3:forces:R:3 tau=tau95 tau_p=9 tau_q=5 stage=B constraint=xy_fixed_z_free force_label=raw_dft energy=-15498.592196417734 free_energy=-15498.592196417734 stress="0.00022127598526306785 0.0 -0.0013588732704951886 0.0 0.008982335949496236 1.8363152303989035e-06 -0.0013588732704951886 1.8363152303989035e-06 -0.028479412908256594" pbc="T T T"
Sr       0.00003612       0.00009431      10.77221835       0.01153088      -0.00010876       0.01124343
Sr       3.54675692       1.97046093      14.86670132       0.47466498      -0.00014964       1.19582908
Ti       1.97047269       1.97057450      12.26018826      -0.45403959       0.00045457      -0.49362635
Ti       1.57610576       3.94088573      16.31432398      -0.02293810       0.00018512       0.42194323
O        0.00000902       1.97050521      12.39437851      -0.17262824      -0.00015787       0.00238547
O        3.54704290       0.00000361      16.39576706      -0.00165168      -0.00002545       0.56837475
O        1.97049401       3.94093312      12.28106980       0.43480106      -0.00030622      -1.37479457
O        1.57647643       1.97047936      16.37388509      -0.06717804      -0.00017869       0.51279881
O        1.97043419       1.97038596      10.47782017      -0.04943717       0.00024631      -1.15295696
O        1.57644658       3.94090180      14.53896743      -0.15312385       0.00004037       0.30880337
10
Lattice="3.940949890606662 0.0 0.0 0.0 3.940949890606662 0.0 0.0 0.0 26.940967945119528" Properties=species:S:1:pos:R:3:forces:R:3 tau=tau95 tau_p=9 tau_q=5 stage=B constraint=xy_fixed_z_free force_label=raw_dft energy=-15498.840178793005 free_energy=-15498.840178793005 stress="-0.0025763502682496615 0.0 -0.001719709213268573 0.0 0.0033760655510883843 1.8363152303989035e-06 -0.001719709213268573 1.8363152303989035e-06 -0.023905151669332925" pbc="T T T"
Sr       0.00003612       0.00009431      10.77829235       0.01215078      -0.00011930      -0.52646885
Sr       3.54675692       1.97046093      14.97046066       0.39505231      -0.00013807      -0.13707348
Ti       1.97047269       1.97057450      12.21047627      -0.33211402       0.00029516      -0.45551489
Ti       1.57610576       3.94088573      16.34047917      -0.01144629       0.00022420       0.24323202
O        0.00000902       1.97050521      12.38103907      -0.22589095      -0.00013550       0.27863122
O        3.54704290       0.00000361      16.41886162      -0.00239550      -0.00004679       0.85491623
O        1.97049401       3.94093312      12.18357987       0.29907895      -0.00025557      -0.35963923
O        1.57647643       1.97047936      16.39248155      -0.05241348      -0.00018872       0.86702998
O        1.97043419       1.97038596      10.42740480      -0.03981482       0.00030956      -0.77954100
O        1.57644658       3.94090180      14.57224460      -0.04220672       0.00005502       0.01442826
10
Lattice="3.940949890606662 0.0 0.0 0.0 3.940949890606662 0.0 0.0 0.0 26.940967945119528" Properties=species:S:1:pos:R:3:forces:R:3 tau=tau95 tau_p=9 tau_q=5 stage=B constraint=xy_fixed_z_free force_label=raw_dft energy=-15498.941718207956 free_energy=-15498.941718207956 stress="-0.0027820175740543387 -0.0 -0.0017894891920237316 -0.0 0.0016196300332118327 1.8363152303989035e-06 -0.0017894891920237316 1.8363152303989035e-06 -0.021094671209207404" pbc="T T T"
Sr       0.00003612       0.00009431      10.76630988       0.01199265      -0.00011339      -0.74273308
Sr       3.54675692       1.97046093      15.01797353       0.35007086      -0.00013550      -0.54745651
Ti       1.97047269       1.97057450      12.17104140      -0.27921126       0.00023320      -0.27898295
Ti       1.57610576       3.94088573      16.35887158      -0.00630974       0.00023963       0.28955224
O        0.00000902       1.97050521      12.38056063      -0.23859992      -0.00013215       0.18819678
O        3.54704290       0.00000361      16.45190574      -0.00309021      -0.00005656       0.82376808
O        1.97049401       3.94093312      12.12769676       0.24204622      -0.00024811       0.03780087
O        1.57647643       1.97047936      16.42370394      -0.04481664      -0.00018923       0.86677158
O        1.97043419       1.97038596      10.38673296      -0.03355701       0.00034453      -0.59118789
O        1.57644658       3.94090180      14.59052354       0.00147530       0.00005785      -0.04572913
10
Lattice="3.940949890606662 0.0 0.0 0.0 3.940949890606662 0.0 0.0 0.0 26.940967945119528" Properties=species:S:1:pos:R:3:forces:R:3 tau=tau95 tau_p=9 tau_q=5 stage=B constraint=xy_fixed_z_free force_label=raw_dft energy=-15499.059371796262 free_energy=-15499.059371796262 stress="-0.001018236795256192 -0.0 -0.0018280518118621084 -0.0 0.0016168755603662344 1.8363152303989035e-06 -0.0018280518118621084 1.8363152303989035e-06 -0.016535100492126927" pbc="T T T"
Sr       0.00003612       0.00009431      10.73345598       0.01132134      -0.00009719      -0.86088736
Sr       3.54675692       1.97046093      15.05912424       0.30786106      -0.00013498      -0.69842860
Ti       1.97047269       1.97057450      12.11992544      -0.23339986       0.00018512      -0.08734089
Ti       1.57610576       3.94088573      16.38766674      -0.00303005       0.00022600       0.36882603
O        0.00000902       1.97050521      12.38191292      -0.24598978      -0.00013781      -0.05648508
O        3.54704290       0.00000361      16.50804080      -0.00369416      -0.00005374       0.61489320
O        1.97049401       3.94093312      12.06622534       0.19162175      -0.00024811       0.31359411
O        1.57647643       1.97047936      16.47894961      -0.03707685      -0.00016095       0.67848996
O        1.97043419       1.97038596      10.32849488      -0.02642503       0.00036767      -0.31243223
O        1.57644658       3.94090180      14.61152401       0.03881157       0.00005399       0.03977085
10
Lattice="3.940949890606662 0.0 0.0 0.0 3.940949890606662 0.0 0.0 0.0 26.940967945119528" Properties=species:S:1:pos:R:3:forces:R:3 tau=tau95 tau_p=9 tau_q=5 stage=B constraint=xy_fixed_z_free force_label=raw_dft energy=-15499.18378959037 free_energy=-15499.18378959037 stress="0.0037167020263273805 -0.0 -0.001855596540318092 -0.0 0.00398480404996562 1.8363152303989035e-06 -0.001855596540318092 1.8363152303989035e-06 -0.00929450953866405" pbc="T T T"
Sr       0.00003612       0.00009431      10.66311075       0.00888625      -0.00007662      -0.80767221
Sr       3.54675692       1.97046093      15.09478192       0.26724663      -0.00013704      -0.55078892
Ti       1.97047269       1.97057450      12.04987539      -0.18902956       0.00015144       0.14495725
Ti       1.57610576       3.94088573      16.43839229      -0.00059213       0.00019515       0.45897020
O        0.00000902       1.97050521      12.37895904      -0.24792094      -0.00015529      -0.46103839
O        3.54704290       0.00000361      16.59947372      -0.00419141      -0.00004422       0.19427744
O        1.97049401       3.94093312      11.99347892       0.14313177      -0.00025402       0.42704995
O        1.57647643       1.97047936      16.57115674      -0.02904832      -0.00011210       0.26288399
O        1.97043419       1.97038596      10.24294847      -0.01881482       0.00038644       0.05530314
O        1.57644658       3.94090180      14.64314272       0.07033253       0.00004602       0.27605780
10
Lattice="3.940949890606662 0.0 0.0 0.0 3.940949890606662 0.0 0.0 0.0 26.940967945119528" Properties=species:S:1:pos:R:3:forces:R:3 tau=tau95 tau_p=9 tau_q=5 stage=B constraint=xy_fixed_z_free force_label=raw_dft energy=-15499.246451829078 free_energy=-15499.246451829078 stress="0.007835557088112122 -0.0 -0.0018886502144652723 -0.0 0.00689811816299348 1.8363152303989035e-06 -0.0018886502144652723 1.8363152303989035e-06 -0.0047101485659731875" pbc="T T T"
Sr       0.00003612       0.00009431      10.60144790       0.00687127      -0.00006608      -0.58861139
Sr       3.54675692       1.97046093      15.09948166       0.25496396      -0.00013447      -0.27410659
Ti       1.97047269       1.97057450      12.01433402      -0.17550530       0.00015041       0.18535263
Ti       1.57610576       3.94088573      16.47952522       0.00037770       0.00013961       0.43658360
O        0.00000902       1.97050521      12.36569746      -0.24438078      -0.00016661      -0.64004605
O        3.54704290       0.00000361      16.65749457      -0.00412456      -0.00002905      -0.06296143
O        1.97049401       3.94093312      11.96325833       0.12397551      -0.00026431       0.32799666
O        1.57647643       1.97047936      16.63144716      -0.02545906      -0.00006813      -0.00856126
O        1.97043419       1.97038596      10.19429278      -0.01604214       0.00039749       0.21680416
O        1.57644658       3.94090180      14.66834086       0.07932342       0.00004139       0.40754993
10
Lattice="3.940949890606662 0.0 0.0 0.0 3.940949890606662 0.0 0.0 0.0 26.940967945119528" Properties=species:S:1:pos:R:3:forces:R:3 tau=tau95 tau_p=9 tau_q=5 stage=B constraint=xy_fixed_z_free force_label=raw_dft energy=-15499.299234294589 free_energy=-15499.299234294589 stress="0.011781798518239364 -0.0 -0.0019373125680708432 -0.0 0.010266838453160268 1.8363152303989035e-06 -0.0019373125680708432 1.8363152303989035e-06 -0.001083425985935353" pbc="T T T"
Sr       0.00003612       0.00009431      10.53174720       0.00445007      -0.00005991      -0.23982222
Sr       3.54675692       1.97046093      15.09231086       0.25198122      -0.00013061       0.06151570
Ti       1.97047269       1.97057450      11.99102472      -0.17159183       0.00017561       0.10340154
Ti       1.57610576       3.94088573      16.52707552       0.00116934       0.00009487       0.28730432
O        0.00000902       1.97050521      12.33654364      -0.23672738      -0.00018358      -0.66278412
O        3.54704290       0.00000361      16.70545759      -0.00400398      -0.00001954      -0.21001953
O        1.97049401       3.94093312      11.94900430       0.11253693      -0.00026971       0.15307680
O        1.57647643       1.97047936      16.68303685      -0.02320729      -0.00003754      -0.17932930
O        1.97043419       1.97038596      10.15854340      -0.01496433       0.00039158       0.24505081
O        1.57644658       3.94090180      14.70057591       0.08035726       0.00003908       0.44160599
10
Lattice="3.940949890606662 0.0 0.0 0.0 3.940949890606662 0.0 0.0 0.0 26.940967945119528" Properties=species:S:1:pos:R:3:forces:R:3 tau=tau95 tau_p=9 tau_q=5 stage=B constraint=xy_fixed_z_free force_label=raw_dft energy=-15499.331364000034 free_energy=-15499.331364000034 stress="0.013701666091621418 -0.0 -0.0019648572965268265 -0.0 0.012385028071425405 1.8363152303989035e-06 -0.0019648572965268265 1.8363152303989035e-06 0.0003911351440749664" pbc="T T T"
Sr       0.00003612       0.00009431      10.48079071       0.00280533      -0.00005142       0.05336427
Sr       3.54675692       1.97046093      15.08698326       0.25161355      -0.00012213       0.27588811
Ti       1.97047269       1.97057450      11.98060932      -0.17170573       0.00019412      -0.03793303
Ti       1.57610576       3.94088573      16.56524583       0.00191213       0.00005811       0.10375095
O        0.00000902       1.97050521      12.29961396      -0.22679444      -0.00019592      -0.54313320
O        3.54704290       0.00000361      16.72992608      -0.00398598      -0.00001106      -0.20059181
O        1.97049401       3.94093312      11.94639683       0.10726334      -0.00026894       0.04203034
O        1.57647643       1.97047936      16.71079636      -0.02203898      -0.00002545      -0.18929387
O        1.97043419       1.97038596      10.14261987      -0.01516257       0.00038387       0.15007529
O        1.57644658       3.94090180      14.73233773       0.07609334       0.00003857       0.34584269
10
Lattice="3.940949890606662 0.0 0.0 0.0 3.940949890606662 0.0 0.0 0.0 26.940967945119528" Properties=species:S:1:pos:R:3:forces:R:3 tau=tau95 tau_p=9 tau_q=5 stage=B constraint=xy_fixed_z_free force_label=raw_dft energy=-15499.352654322827 free_energy=-15499.352654322827 stress="0.013938550756342876 -0.0 -0.001943739671377239 -0.0 0.013109454429817773 1.8363152303989035e-06 -0.001943739671377239 1.8363152303989035e-06 0.00041867987253095003" pbc="T T T"
Sr       0.00003612       0.00009431      10.44919910       0.00172135      -0.00005322       0.22637612
Sr       3.54675692       1.97046093      15.09348879       0.24552955      -0.00012007       0.34410976
Ti       1.97047269       1.97057450      11.97155451      -0.16700215       0.00018743      -0.14511281
Ti       1.57610576       3.94088573      16.59401886       0.00231631       0.00007045      -0.03536527
O        0.00000902       1.97050521      12.25996515      -0.21506095      -0.00020132      -0.38093464
O        3.54704290       0.00000361      16.74114493      -0.00398701      -0.00000591      -0.11048956
O        1.97049401       3.94093312      11.94404359       0.10306396      -0.00026045       0.01719605
O        1.57647643       1.97047936      16.72441066      -0.02104242      -0.00004139      -0.10972671
O        1.97043419       1.97038596      10.13463976      -0.01566573       0.00037435       0.01091896
O        1.57644658       3.94090180      14.76285462       0.07012735       0.00005065       0.18302809
10
Lattice="3.940949890606662 0.0 0.0 0.0 3.940949890606662 0.0 0.0 0.0 26.940967945119528" Properties=species:S:1:pos:R:3:forces:R:3 tau=tau95 tau_p=9 tau_q=5 stage=B constraint=xy_fixed_z_free force_label=raw_dft energy=-15499.37102581653 free_energy=-15499.37102581653 stress="0.013120472321200165 -0.0 -0.0018583510131636902 -0.0 0.012794526367804359 1.8363152303989035e-06 -0.0018583510131636902 1.8363152303989035e-06 -0.00028830149117262783" pbc="T T T"
Sr       0.00003612       0.00009431      10.42788348       0.00106418      -0.00005219       0.28738326
Sr       3.54675692       1.97046093      15.11621543       0.22910432      -0.00011699       0.29006260
Ti       1.97047269       1.97057450      11.95479732      -0.15431427       0.00016969      -0.19212028
Ti       1.57610576       3.94088573      16.62031313       0.00233945       0.00006762      -0.11505532
O        0.00000902       1.97050521      12.21424846      -0.19952686      -0.00020235      -0.21699545
O        3.54704290       0.00000361      16.75097172      -0.00385794      -0.00000360       0.01140927
O        1.97049401       3.94093312      11.93553840       0.09705606      -0.00023577       0.05340464
O        1.57647643       1.97047936      16.73605858      -0.01950542      -0.00005579       0.00880423
O        1.97043419       1.97038596      10.12317737      -0.01579249       0.00037178      -0.12125348
O        1.57644658       3.94090180      14.79611607       0.06343271       0.00005759      -0.00563946
10
Lattice="3.940949890606662 0.0 0.0 0.0 3.940949890606662 0.0 0.0 0.0 26.940967945119528" Properties=species:S:1:pos:R:3:forces:R:3 tau=tau95 tau_p=9 tau_q=5 stage=B constraint=xy_fixed_z_free force_label=raw_dft energy=-15499.386482018623 free_energy=-15499.386482018623 stress="0.011782716675854565 -0.0 -0.0017160365828077751 -0.0 0.011798325355312955 1.8363152303989035e-06 -0.0017160365828077751 1.8363152303989035e-06 -0.0011091343991609377" pbc="T T T"
Sr       0.00003612       0.00009431      10.41300058       0.00070088      -0.00005862       0.23188317
Sr       3.54675692       1.97046093      15.15366023       0.20364037      -0.00011570       0.14720183
Ti       1.97047269       1.97057450      11.92679710      -0.13568997       0.00013318      -0.17244003
Ti       1.57610576       3.94088573      16.64550773       0.00230525       0.00008690      -0.11527824
O        0.00000902       1.97050521      12.16600156      -0.18111031      -0.00019412      -0.09834701
O        3.54704290       0.00000361      16.76695625      -0.00355275      -0.00000720       0.11004527
O        1.97049401       3.94093312      11.91911159       0.08904862      -0.00020389       0.11417086
O        1.57647643       1.97047936      16.75336150      -0.01723693      -0.00007508       0.10989152
O        1.97043419       1.97038596      10.10156229      -0.01515305       0.00036921      -0.18360556
O        1.57644658       3.94090180      14.82936112       0.05704815       0.00006531      -0.14352206
10
Lattice="3.940949890606662 0.0 0.0 0.0 3.940949890606662 0.0 0.0 0.0 26.940967945119528" Properties=species:S:1:pos:R:3:forces:R:3 tau=tau95 tau_p=9 tau_q=5 stage=B constraint=xy_fixed_z_free force_label=raw_dft energy=-15499.398023454973 free_energy=-15499.398023454973 stress="0.01070112700514961 -0.0 -0.0015498500544566746 -0.0 0.010877413267267905 1.8363152303989035e-06 -0.0015498500544566746 1.8363152303989035e-06 -0.0012789935579728363" pbc="T T T"
Sr       0.00003612       0.00009431      10.39552575       0.00045766      -0.00006402       0.12205027
Sr       3.54675692       1.97046093      15.19776604       0.17549965      -0.00011724       0.00553533
Ti       1.97047269       1.97057450      11.88793640      -0.11701682       0.00008305      -0.10956499
Ti       1.57610576       3.94088573      16.67357324       0.00283053       0.00011159      -0.07699863
O        0.00000902       1.97050521      12.11722538      -0.16187974      -0.00018743      -0.04661461
O        3.54704290       0.00000361      16.79538597      -0.00313109      -0.00001028       0.13947232
O        1.97049401       3.94093312      11.89657305       0.08010143      -0.00017046       0.14888256
O        1.57647643       1.97047936      16.78307386      -0.01447814      -0.00008767       0.14251882
O        1.97043419       1.97038596      10.06676900      -0.01384539       0.00037461      -0.15306780
O        1.57644658       3.94090180      14.86149128       0.05146166       0.00006736      -0.17221352
10
Lattice="3.940949890606662 0.0 0.0 0.0 3.940949890606662 0.0 0.0 0.0 26.940967945119528" Properties=species:S:1:pos:R:3:forces:R:3 tau=tau95 tau_p=9 tau_q=5 stage=B constraint=xy_fixed_z_free force_label=raw_dft energy=-15499.404994603348 free_energy=-15499.404994603348 stress="0.010306319230613845 0.0 -0.0014084537817159587 0.0 0.01060104782509287 1.8363152303989035e-06 -0.0014084537817159587 1.8363152303989035e-06 -0.0006785184776323948" pbc="T T T"
Sr       0.00003612       0.00009431      10.37383864       0.00028308      -0.00006762       0.03553419
Sr       3.54675692       1.97046093      15.23541801       0.15259780      -0.00011904      -0.05715948
Ti       1.97047269       1.97057450      11.84800675      -0.10273717       0.00004551      -0.04815393
Ti       1.57610576       3.94088573      16.70190500       0.00313803       0.00010464      -0.03344260
O        0.00000902       1.97050521      12.07319736      -0.14544293      -0.00017843      -0.04305338
O        3.54704290       0.00000361      16.83066319      -0.00265389      -0.00001028       0.09806805
O        1.97049401       3.94093312      11.87591302       0.07277353      -0.00014244       0.12982811
O        1.57647643       1.97047936      16.81979472      -0.01215155      -0.00007868       0.10172852
O        1.97043419       1.97038596      10.02765481      -0.01254081       0.00037924      -0.06761796
O        1.57644658       3.94090180      14.88892846       0.04673366       0.00006685      -0.11573127
10
Lattice="3.940949890606662 0.0 0.0 0.0 3.940949890606662 0.0 0.0 0.0 26.940967945119528" Properties=species:S:1:pos:R:3:forces:R:3 tau=tau95 tau_p=9 tau_q=5 stage=B constraint=xy_fixed_z_free force_label=raw_dft energy=-15499.407510840016 free_energy=-15499.407510840016 stress="0.01036508131798661 -0.0 -0.0013258195963480083 -0.0 0.010847114065966322 1.8363152303989035e-06 -0.0013258195963480083 1.8363152303989035e-06 1.9281309919188485e-05" pbc="T T T"
Sr       0.00003612       0.00009431      10.35689597       0.00020800      -0.00006736       0.00537721
Sr       3.54675692       1.97046093      15.25541428       0.14022591      -0.00011904      -0.04885507
Ti       1.97047269       1.97057450      11.82217983      -0.09520666       0.00002057      -0.00437139
Ti       1.57610576       3.94088573      16.72116486       0.00299045       0.00010053      -0.00677203
O        0.00000902       1.97050521      12.04347270      -0.13561978      -0.00017663      -0.04615310
O        3.54704290       0.00000361      16.85640823      -0.00244898      -0.00000926       0.04016243
O        1.97049401       3.94093312      11.86618774       0.06919404      -0.00012624       0.07997699
O        1.57647643       1.97047936      16.84675762      -0.01096524      -0.00006968       0.04199948
O        1.97043419       1.97038596      10.00146431      -0.01181370       0.00038078      -0.00942335
O        1.57644658       3.94090180      14.90537443       0.04343570       0.00006659      -0.05194091
10
Lattice="3.940949890606662 0.0 0.0 0.0 3.940949890606662 0.0 0.0 0.0 26.940967945119528" Properties=species:S:1:pos:R:3:forces:R:3 tau=tau95 tau_p=9 tau_q=5 stage=B constraint=xy_fixed_z_free force_label=raw_dft energy=-15499.408178743432 free_energy=-15499.408178743432 stress="0.010438533927202566 -0.0 -0.0013047019711984209 -0.0 0.011114297931989363 1.8363152303989035e-06 -0.0013047019711984209 1.8363152303989035e-06 0.00031125543155261415" pbc="T T T"
Sr       0.00003612       0.00009431      10.35238820       0.00016378      -0.00006891       0.00709265
Sr       3.54675692       1.97046093      15.25797491       0.13762730      -0.00011853      -0.02625173
Ti       1.97047269       1.97057450      11.81618497      -0.09401779       0.00001671       0.00299071
Ti       1.57610576       3.94088573      16.72599559       0.00279196       0.00009950      -0.00307375
O        0.00000902       1.97050521      12.03335088      -0.13301345      -0.00017638      -0.03564680
O        3.54704290       0.00000361      16.86360829      -0.00237416      -0.00000874       0.01301750
O        1.97049401       3.94093312      11.86772258       0.06919507      -0.00012264       0.04514112
O        1.57647643       1.97047936      16.85445789      -0.01067111      -0.00006711       0.01301415
O        1.97043419       1.97038596       9.99518399      -0.01176460       0.00037898       0.00560089
O        1.57644658       3.94090180      14.90845266       0.04206273       0.00006685      -0.02188446
10
Lattice="3.940949890606662 0.0 0.0 0.0 3.940949890606662 0.0 0.0 0.0 26.940967945119528" Properties=species:S:1:pos:R:3:forces:R:3 tau=tau95 tau_p=9 tau_q=5 stage=B constraint=xy_fixed_z_free force_label=raw_dft energy=-15499.408596030005 free_energy=-15499.408596030005 stress="0.010435779454356968 -0.0 -0.0013037838135832214 -0.0 0.011342919178174026 1.8363152303989035e-06 -0.0013037838135832214 1.8363152303989035e-06 0.0004021530354573599" pbc="T T T"
Sr       0.00003612       0.00009431      10.35445463       0.00019360      -0.00006891       0.01209447
Sr       3.54675692       1.97046093      15.25380539       0.13849839      -0.00011853      -0.00421584
Ti       1.97047269       1.97057450      11.81807367      -0.09519150       0.00001774       0.00063712
Ti       1.57610576       3.94088573      16.72415618       0.00267189       0.00009256      -0.00357049
O        0.00000902       1.97050521      12.03055328      -0.13302194      -0.00017535      -0.01594907
O        3.54704290       0.00000361      16.86294290      -0.00234742      -0.00000746      -0.00306090
O        1.97049401       3.94093312      11.87482209       0.07079121      -0.00012084       0.01455887
O        1.57647643       1.97047936      16.85396075      -0.01072073      -0.00006402      -0.00432742
O        1.97043419       1.97038596       9.99711699      -0.01203379       0.00037872       0.00551090
O        1.57644658       3.94090180      14.90543407       0.04116028       0.00006582      -0.00167790
