10
Lattice="3.940949890606662 0.0 0.0 0.0 3.940949890606662 0.0 0.0 0.0 26.940967945119528" Properties=species:S:1:pos:R:3:forces:R:3 tau=tau51 tau_p=5 tau_q=1 stage=A constraint=rigid_scf force_label=raw_dft energy=-15497.108179108012 free_energy=-15497.108179108012 stress="0.022395700549945028 -9.181576151994517e-07 -9.181576151994517e-07 -9.181576151994517e-07 0.00430432290005503 -0.0007023905756275805 -9.181576151994517e-07 -0.0007023905756275805 -0.03506627563969746" pbc="T T T"
Sr       0.00003626       0.00009419      10.75260867      -0.00009950      -0.00926677       0.35685292
Sr       1.97037682       0.39408080      14.64522241      -0.00025248      -0.60585758       5.12136933
Ti       1.97047258       1.97057465      12.38212169       0.00006094       0.94980073      -3.07487226
Ti       3.94067560       2.36450570      16.28444791       0.00036921       0.05779274       0.20616236
O        0.00000906       1.97050529      12.45001441      -0.00007199      -0.92555343      -3.66380015
O        1.97066293       2.36457348      16.39256827      -0.00048131       0.09910729      -0.31806089
O        1.97049386       3.94093294      12.44909065       0.00007019      -0.20323362      -1.54551068
O        0.00009655       0.39409932      16.37955485       0.00036638       0.00311592      -0.05426905
O        1.97043435       1.97038588      10.49176941       0.00012933       0.05637735       0.34265452
O        0.00006660       2.36452185      14.44792112      -0.00009102       0.57771737       2.62947389
