10
Lattice="3.940949890606662 0.0 0.0 0.0 3.940949890606662 0.0 0.0 0.0 26.940967945119528" Properties=species:S:1:pos:R:3:forces:R:3 tau=tau91 tau_p=9 tau_q=1 stage=B constraint=xy_fixed_z_free force_label=raw_dft energy=-15500.272151746003 free_energy=-15500.272151746003 stress="0.009457023436554352 -0.0003654267308493818 -0.006756721890252766 -0.0003654267308493818 0.009165967472536125 0.006750294786946369 -0.006756721890252766 0.006750294786946369 -0.0018886502144652723" pbc="T T T"
Sr       0.00003626       0.00009419      10.75260867       0.00210188      -0.00214456       0.09753094
Sr       3.54675677       0.39408080      14.64522241       0.35251778      -0.35302095       0.67536452
Ti       1.97047258       1.97057465      12.38212169      -0.33990087       0.34029656      -0.15374966
Ti       1.57610567       2.36450570      16.28444791       0.04812462      -0.04797139      -0.01391275
O        0.00000906       1.97050529      12.45001441      -0.90682063      -0.27280921      -0.29828730
O        3.54704288       2.36457348      16.39256827       0.00999079      -0.02015436      -0.03388045
O        1.97049386       3.94093294      12.44909065       0.27292646       0.90488536      -0.29579076
O        1.57647651       0.39409932      16.37955485       0.02095578      -0.01071199       0.00404692
O        1.97043435       1.97038588      10.49176941      -0.16384895       0.16381295       0.08157570
O        1.57644656       2.36452185      14.44792112       0.70395288      -0.70218267      -0.06289715
10
Lattice="3.940949890606662 0.0 0.0 0.0 3.940949890606662 0.0 0.0 0.0 26.940967945119528" Properties=species:S:1:pos:R:3:forces:R:3 tau=tau91 tau_p=9 tau_q=1 stage=B constraint=xy_fixed_z_free force_label=raw_dft energy=-15500.284670207093 free_energy=-15500.284670207093 stress="0.009072315395785782 -0.00035716331231258673 -0.00659879878043846 -0.00035716331231258673 0.008804213372147544 0.006593289834747263 -0.00659879878043846 0.006593289834747263 -0.002002501758750004" pbc="T T T"
Sr       0.00003612       0.00009431      10.75461607       0.00189850      -0.00194710       0.08353540
Sr       3.54675692       0.39408097      14.65912286       0.33376261      -0.33421307       0.53664862
Ti       1.97047269       1.97057450      12.37895753      -0.32491931       0.32527540      -0.16318817
Ti       1.57610576       2.36450576      16.28416157       0.04822053      -0.04807449      -0.07230585
O        0.00000902       1.97050521      12.44387520      -0.89350437      -0.27830880      -0.24168678
O        3.54704290       2.36457356      16.39187101       0.00935522      -0.01962343      -0.00823164
O        1.97049401       3.94093312      12.44300275       0.27838671       0.89168994      -0.23929514
O        1.57647643       0.39409940      16.37963810       0.02036725      -0.01001985       0.02862126
O        1.97043419       1.97038596      10.49344836      -0.16367386       0.16366691       0.02574780
O        1.57644658       2.36452183      14.44662652       0.69010671      -0.68844552       0.05015451
10
Lattice="3.940949890606662 0.0 0.0 0.0 3.940949890606662 0.0 0.0 0.0 26.940967945119528" Properties=species:S:1:pos:R:3:forces:R:3 tau=tau91 tau_p=9 tau_q=1 stage=B constraint=xy_fixed_z_free force_label=raw_dft energy=-15500.295856398829 free_energy=-15500.295856398829 stress="0.008616909218646855 -0.00035073620900619054 -0.0064243488335505635 -0.00035073620900619054 0.0083745156082342 0.006418839887859367 -0.0064243488335505635 0.006418839887859367 -0.002333956657837006" pbc="T T T"
Sr       0.00003612       0.00009431      10.75697196       0.00175426      -0.00181160       0.06312804
Sr       3.54675692       0.39408097      14.67441303       0.31404482      -0.31444232       0.40807392
Ti       1.97047269       1.97057450      12.37447239      -0.31150200       0.31181876      -0.15332105
Ti       1.57610576       2.36450576      16.28234695       0.04786443      -0.04773819      -0.04372958
O        0.00000902       1.97050521      12.43700777      -0.87512047      -0.28172477      -0.18386216
O        3.54704290       2.36457356      16.39156156       0.00850984      -0.01905830       0.00772719
O        1.97049401       3.94093312      12.43620183       0.28176102       0.87345157      -0.18161039
O        1.57647643       0.39409940      16.38035174       0.01973193      -0.00911507       0.04276927
O        1.97043419       1.97038596      10.49433858      -0.16236131       0.16239113      -0.02995901
O        1.57644658       2.36452183      14.44765415       0.67531747      -0.67377095       0.07078401
10
Lattice="3.940949890606662 0.0 0.0 0.0 3.940949890606662 0.0 0.0 0.0 26.940967945119528" Properties=species:S:1:pos:R:3:forces:R:3 tau=tau91 tau_p=9 tau_q=1 stage=B constraint=xy_fixed_z_free force_label=raw_dft energy=-15500.307681377803 free_energy=-15500.307681377803 stress="0.00793379995293846 -0.0003424727904693955 -0.006170019174140315 -0.0003424727904693955 0.007735477908055381 0.006165428386064319 -0.006170019174140315 0.006165428386064319 -0.002776508628363142" pbc="T T T"
Sr       0.00003612       0.00009431      10.76047868       0.00163651      -0.00170696       0.02329857
Sr       3.54675692       0.39408097      14.69734830       0.28606839      -0.28638284       0.22710477
Ti       1.97047269       1.97057450      12.36669220      -0.29381898       0.29405193      -0.12763573
Ti       1.57610576       2.36450576      16.28018157       0.04740677      -0.04734044       0.01043457
O        0.00000902       1.97050521      12.42671266      -0.84655680      -0.28469465      -0.10574330
O        3.54704290       2.36457356      16.39160282       0.00721554      -0.01818284       0.03210382
O        1.97049401       3.94093312      12.42602248       0.28468360       0.84514655      -0.10373656
O        1.57647643       0.39409940      16.38218652       0.01875543      -0.00771074       0.06315786
O        1.97043419       1.97038596      10.49383045      -0.15944182       0.15953412      -0.09419288
O        1.57644658       2.36452183      14.45026428       0.65405111      -0.65271413       0.07520862
10
Lattice="3.940949890606662 0.0 0.0 0.0 3.940949890606662 0.0 0.0 0.0 26.940967945119528" Properties=species:S:1:pos:R:3:forces:R:3 tau=tau91 tau_p=9 tau_q=1 stage=B constraint=xy_fixed_z_free force_label=raw_dft energy=-15500.31534179053 free_energy=-15500.31534179053 stress="0.006908217896760675 -0.0003342093719326004 -0.005807346916136533 -0.0003342093719326004 0.006782430303478349 0.005804592443290933 -0.005807346916136533 0.005804592443290933 -0.00326496847964925" pbc="T T T"
Sr       0.00003612       0.00009431      10.76509938       0.00160463      -0.00170104      -0.05082557
Sr       3.54675692       0.39408097      14.73154628       0.24798393      -0.24822278      -0.02769052
Ti       1.97047269       1.97057450      12.35319086      -0.27166456       0.27178849      -0.08002224
Ti       1.57610576       2.36450576      16.27882748       0.04692238      -0.04692443       0.08353463
O        0.00000902       1.97050521      12.41120432      -0.80324785      -0.28545724      -0.00375587
O        3.54704290       2.36457356      16.39295479       0.00528902      -0.01684792       0.07322682
O        1.97049401       3.94093312      12.41072180       0.28539682       0.80227752      -0.00223686
O        1.57647643       0.39409940      16.38674769       0.01727473      -0.00559035       0.09523418
O        1.97043419       1.97038596      10.48947454      -0.15352006       0.15370106      -0.15230829
O        1.57644658       2.36452183      14.45555283       0.62396071      -0.62302329       0.06484348
10
Lattice="3.940949890606662 0.0 0.0 0.0 3.940949890606662 0.0 0.0 0.0 26.940967945119528" Properties=species:S:1:pos:R:3:forces:R:3 tau=tau91 tau_p=9 tau_q=1 stage=B constraint=xy_fixed_z_free force_label=raw_dft energy=-15500.316608480449 free_energy=-15500.316608480449 stress="0.006865064488846301 -0.00033329121431740095 -0.005755011932070163 -0.00033329121431740095 0.006758558205483163 0.005752257459224566 -0.005755011932070163 0.005752257459224566 -0.0030556285433837754" pbc="T T T"
Sr       0.00003612       0.00009431      10.76470063       0.00162751      -0.00172598      -0.06680729
Sr       3.54675692       0.39408097      14.73639667       0.24214058      -0.24237532      -0.05234020
Ti       1.97047269       1.97057450      12.34949279      -0.27045743       0.27054484      -0.06654401
Ti       1.57610576       2.36450576      16.28052033       0.04727102      -0.04732887       0.08126229
O        0.00000902       1.97050521      12.40865211      -0.79558056      -0.28461135       0.00054636
O        3.54704290       2.36457356      16.39468395       0.00496351      -0.01656587       0.07720971
O        1.97049401       3.94093312      12.40823328       0.28454167       0.79474290       0.00189259
O        1.57647643       0.39409940      16.38942611       0.01696928      -0.00518360       0.09598031
O        1.97043419       1.97038596      10.48574718      -0.15143155       0.15163544      -0.12738942
O        1.57644658       2.36452183      14.45746690       0.61995596      -0.61913244       0.05618966
10
Lattice="3.940949890606662 0.0 0.0 0.0 3.940949890606662 0.0 0.0 0.0 26.940967945119528" Properties=species:S:1:pos:R:3:forces:R:3 tau=tau91 tau_p=9 tau_q=1 stage=B constraint=xy_fixed_z_free force_label=raw_dft energy=-15500.318313273649 free_energy=-15500.318313273649 stress="0.0069274992066798635 -0.0003342093719326004 -0.00571002220892539 -0.0003342093719326004 0.006844865021311912 0.005708185893694991 -0.00571002220892539 0.005708185893694991 -0.0026681660297696065" pbc="T T T"
Sr       0.00003612       0.00009431      10.76307853       0.00164551      -0.00174141      -0.07943886
Sr       3.54675692       0.39408097      14.74018568       0.23689450      -0.23712025      -0.06050680
Ti       1.97047269       1.97057450      12.34497931      -0.27092460       0.27097319      -0.04592762
Ti       1.57610576       2.36450576      16.28351411       0.04780144      -0.04794413       0.07086372
O        0.00000902       1.97050521      12.40614859      -0.78787163      -0.28330292      -0.00427497
O        3.54704290       2.36457356      16.39762463       0.00466527      -0.01626094       0.07638516
O        1.97049401       3.94093312      12.40581170       0.28322424       0.78719748      -0.00315731
O        1.57647643       0.39409940      16.39355903       0.01664249      -0.00477351       0.09092038
O        1.97043419       1.97038596      10.48041175      -0.14878974       0.14902165      -0.08806003
O        1.57644658       2.36452183      14.46000665       0.61671200      -0.61604892       0.04319608
10
Lattice="3.940949890606662 0.0 0.0 0.0 3.940949890606662 0.0 0.0 0.0 26.940967945119528" Properties=species:S:1:pos:R:3:forces:R:3 tau=tau91 tau_p=9 tau_q=1 stage=B constraint=xy_fixed_z_free force_label=raw_dft energy=-15500.32053168172 free_energy=-15500.32053168172 stress="0.007123066778717347 -0.00033329121431740095 -0.005657687224859021 -0.00033329121431740095 0.0070753225827269745 0.005656769067243822 -0.005657687224859021 0.005656769067243822 -0.002012601492517198" pbc="T T T"
Sr       0.00003612       0.00009431      10.75943306       0.00161697      -0.00171415      -0.08907227
Sr       3.54675692       0.39408097      14.74418664       0.23070457      -0.23091926      -0.05678436
Ti       1.97047269       1.97057450      12.33854041      -0.27277425       0.27278659      -0.01588993
Ti       1.57610576       2.36450576      16.28858330       0.04861673      -0.04890958       0.05372911
O        0.00000902       1.97050521      12.40264097      -0.77751419      -0.28124835      -0.01574338
O        3.54704290       2.36457356      16.40277733       0.00430223      -0.01582848       0.06897653
O        1.97049401       3.94093312      12.40242852       0.28115862       0.77707376      -0.01499724
O        1.57647643       0.39409940      16.40047943       0.01618561      -0.00423975       0.07719043
O        1.97043419       1.97038596      10.47240860      -0.14505058       0.14532544      -0.03197218
O        1.57644658       2.36452183      14.46384170       0.61275456      -0.61232622       0.02456329
10
Lattice="3.940949890606662 0.0 0.0 0.0 3.940949890606662 0.0 0.0 0.0 26.940967945119528" Properties=species:S:1:pos:R:3:forces:R:3 tau=tau91 tau_p=9 tau_q=1 stage=B constraint=xy_fixed_z_free force_label=raw_dft energy=-15500.322848186828 free_energy=-15500.322848186828 stress="0.007516038238022712 -0.0003314548990870021 -0.005586989088488664 -0.0003314548990870021 0.007524301656559507 0.005587907246103863 -0.005586989088488664 0.005587907246103863 -0.0009521294469618315" pbc="T T T"
Sr       0.00003612       0.00009431      10.75195390       0.00149921      -0.00159871      -0.09017553
Sr       3.54675692       0.39408097      14.74908449       0.22268376      -0.22288251      -0.03756047
Ti       1.97047269       1.97057450      12.32898707      -0.27642521       0.27637971       0.02443422
Ti       1.57610576       2.36450576      16.29715963       0.04993854      -0.05044864       0.02670528
O        0.00000902       1.97050521      12.39685603      -0.76176413      -0.27801930      -0.03258616
O        3.54704290       2.36457356      16.41186311       0.00382683      -0.01516411       0.05015888
O        1.97049401       3.94093312      12.39684105       0.27791465       0.76168391      -0.03243575
O        1.57647643       0.39409940      16.41230693       0.01549141      -0.00349619       0.04862059
O        1.97043419       1.97038596      10.46040387      -0.13966772       0.13999708       0.04120424
O        1.57644658       2.36452183      14.46986389       0.60650292      -0.60645099       0.00163471
10
Lattice="3.940949890606662 0.0 0.0 0.0 3.940949890606662 0.0 0.0 0.0 26.940967945119528" Properties=species:S:1:pos:R:3:forces:R:3 tau=tau91 tau_p=9 tau_q=1 stage=B constraint=xy_fixed_z_free force_label=raw_dft energy=-15500.32384044994 free_energy=-15500.32384044994 stress="0.007898909963560883 -0.00032594595339580535 -0.005537408577267893 -0.00032594595339580535 0.007951244947627252 0.005538326734883092 -0.005537408577267893 0.005538326734883092 -0.00011293338666953257" pbc="T T T"
Sr       0.00003612       0.00009431      10.74396718       0.00131306      -0.00141436      -0.07389171
Sr       3.54675692       0.39408097      14.75220773       0.21749193      -0.21768193      -0.01555055
Ti       1.97047269       1.97057450      12.32214351      -0.27980236       0.27970980       0.04664830
Ti       1.57610576       2.36450576      16.30449958       0.05087030      -0.05154265       0.00651877
O        0.00000902       1.97050521      12.39143399      -0.74881683      -0.27554718      -0.03817985
O        3.54704290       2.36457356      16.42013977       0.00353578      -0.01460541       0.02847728
O        1.97049401       3.94093312      12.39157642       0.27543611       0.74901506      -0.03852155
O        1.57647643       0.39409940      16.42267962       0.01491908      -0.00299148       0.01962574
O        1.97043419       1.97038596      10.45197736      -0.13594271       0.13630755       0.07542588
O        1.57644658       2.36452183      14.47469482       0.60099562      -0.60124913      -0.01055206
10
Lattice="3.940949890606662 0.0 0.0 0.0 3.940949890606662 0.0 0.0 0.0 26.940967945119528" Properties=species:S:1:pos:R:3:forces:R:3 tau=tau91 tau_p=9 tau_q=1 stage=B constraint=xy_fixed_z_free force_label=raw_dft energy=-15500.324266580212 free_energy=-15500.324266580212 stress="0.008099986481289564 -0.00032227332293500755 -0.005524554370655101 -0.00032227332293500755 0.008166093829583923 0.005525472528270301 -0.005524554370655101 0.005525472528270301 0.0001955675720374832" pbc="T T T"
Sr       0.00003612       0.00009431      10.73911387       0.00114388      -0.00124930      -0.05152696
Sr       3.54675692       0.39408097      14.75285348       0.21650411      -0.21669926      -0.00335195
Ti       1.97047269       1.97057450      12.32052014      -0.28176437       0.28166667       0.04249699
Ti       1.57610576       2.36450576      16.30760055       0.05106237      -0.05178690       0.00105210
O        0.00000902       1.97050521      12.38853344      -0.74338614      -0.27480953      -0.03035573
O        3.54704290       2.36457356      16.42408576       0.00346250      -0.01436630       0.01496562
O        1.97049401       3.94093312      12.38872945       0.27469795       0.74367205      -0.03087741
O        1.57647643       0.39409940      16.42724003       0.01467946      -0.00285032       0.00404049
O        1.97043419       1.97038596      10.45013798      -0.13507650       0.13544957       0.06437580
O        1.57644658       2.36452183      14.47650525       0.59867623      -0.59902693      -0.01081869
10
Lattice="3.940949890606662 0.0 0.0 0.0 3.940949890606662 0.0 0.0 0.0 26.940967945119528" Properties=species:S:1:pos:R:3:forces:R:3 tau=tau91 tau_p=9 tau_q=1 stage=B constraint=xy_fixed_z_free force_label=raw_dft energy=-15500.324632845439 free_energy=-15500.324632845439 stress="0.008279945373868655 -0.0003158462196286114 -0.005524554370655101 -0.0003158462196286114 0.008346052722163017 0.005525472528270301 -0.005524554370655101 0.005525472528270301 0.00035349068185178893" pbc="T T T"
Sr       0.00003612       0.00009431      10.73377523       0.00089423      -0.00099399      -0.01574595
Sr       3.54675692       0.39408097      14.75265904       0.21720448      -0.21740143       0.00602384
Ti       1.97047269       1.97057450      12.32108260      -0.28393849       0.28383745       0.02023201
Ti       1.57610576       2.36450576      16.30980824       0.05107651      -0.05181801      -0.00160128
O        0.00000902       1.97050521      12.38563000      -0.73940325      -0.27468329      -0.01015766
O        3.54704290       2.36457356      16.42740642       0.00345016      -0.01417783       0.00108192
O        1.97049401       3.94093312      12.38584126       0.27457582       0.73970278      -0.01075390
O        1.57647643       0.39409940      16.43054212       0.01449768      -0.00282230      -0.00973368
O        1.97043419       1.97038596      10.45107793      -0.13534158       0.13571260       0.02482940
O        1.57644658       2.36452183      14.47749712       0.59698419      -0.59735597      -0.00417470
