10
Lattice="3.940949890606662 0.0 0.0 0.0 3.940949890606662 0.0 0.0 0.0 26.940967945119528" Properties=species:S:1:pos:R:3:forces:R:3 tau=tau20 tau_p=2 tau_q=0 stage=A constraint=rigid_scf force_label=raw_dft energy=-15499.786265547813 free_energy=-15499.786265547813 stress="0.011234576579580489 0.0 0.014019348626480427 0.0 0.008041224393916798 0.0 0.014019348626480427 0.0 -0.006139719972838733" pbc="T T T"
Sr       0.00003626       0.00009419      10.75260867      -0.00054225       0.00002854       0.15130119
Sr       0.78809185       3.94093570      14.64522241      -0.63942899       0.00003137       1.39339933
Ti       1.97047258       1.97057465      12.38212169       0.47465804      -0.00032139      -0.38946556
Ti       2.75839063       1.97041071      16.28444791      -0.13463582      -0.00008896       0.03021843
O        0.00000906       1.97050529      12.45001441       1.80128094      -0.00006711      -1.13596814
O        0.78837796       1.97047849      16.39256827      -0.00241838       0.00001466      -0.08015466
O        1.97049386       3.94093294      12.44909065      -0.18008649       0.00005579      -0.25869257
O        2.75876148       0.00000434      16.37955485      -0.05457629       0.00006196      -0.00601767
O        1.97043435       1.97038588      10.49176941       0.29439311       0.00017509       0.13745272
O        2.75873153       1.97042687      14.44792112      -1.55864387       0.00010979       0.15792718
