10
Lattice="3.940949890606662 0.0 0.0 0.0 3.940949890606662 0.0 0.0 0.0 26.940967945119528" Properties=species:S:1:pos:R:3:forces:R:3 energy=-15498.68277563149 free_energy=-15498.68277563149 stress="0.006944026043753454 -0.0 -9.181576151994517e-07 -0.0 0.014732757093490402 -0.01763321699990547 -9.181576151994517e-07 -0.01763321699990547 -0.017930700067230094" pbc="T T T"
Sr       0.00003626       0.00009419      10.75260867      -0.00007482      -0.00418576       0.23972092
Sr       3.94085176       2.75865074      14.64522241       0.00002982       0.85723073       2.99082444
Ti       1.97047258       1.97057465      12.38212169      -0.00007122      -0.51553447      -1.26055840
Ti       1.97020066       0.78812574      16.28444791      -0.00049519       0.18707681       0.13931831
O        0.00000906       1.97050529      12.45001441      -0.00006505      -0.09296595      -0.80971649
O        0.00018798       0.78819352      16.39256827       0.00028308       0.06509365      -0.07113497
O        1.97049386       3.94093294      12.44909065      -0.00001723      -2.13341553      -2.35311167
O        1.97057150       2.75866926      16.37955485       0.00041292      -0.01019905      -0.15352520
O        1.97043435       1.97038588      10.49176941       0.00009899      -0.30875092       0.22124034
O        1.97054155       0.78814190      14.44792112      -0.00010156       1.95565048       1.05694271
10
Lattice="3.940949890606662 0.0 0.0 0.0 3.940949890606662 0.0 0.0 0.0 26.940967945119528" Properties=species:S:1:pos:R:3:forces:R:3 energy=-15498.997405080525 free_energy=-15498.997405080525 stress="0.0055603625176478795 -0.0 -9.181576151994517e-07 -0.0 0.012529178817011719 -0.015059621204501406 -9.181576151994517e-07 -0.015059621204501406 -0.017321961568352855" pbc="T T T"
Sr       0.00003612       0.00009431      10.75754259      -0.00008716      -0.00307658       0.20003800
Sr       3.94085191       2.75865092      14.70677900       0.00004371       0.62451324       2.11690545
Ti       1.97047269       1.97057450      12.35617750      -0.00004448      -0.50069149      -0.90764981
Ti       1.97020076       0.78812580      16.28731532      -0.00021932       0.16688414       0.24058044
O        0.00000902       1.97050521      12.43334911      -0.00008022       0.05523398      -0.36770246
O        0.00018798       0.78819359      16.39110425       0.00003034       0.05779171       0.07440438
O        1.97049401       3.94093312      12.40065956      -0.00000566      -1.77287513      -1.79547153
O        1.97057142       2.75866935      16.37639499       0.00033630      -0.01408939       0.00838565
O        1.97043419       1.97038596      10.49632289       0.00009873      -0.28531300      -0.14700128
O        1.97054157       0.78814187      14.46967474      -0.00007251       1.67162252       0.57751091
10
Lattice="3.940949890606662 0.0 0.0 0.0 3.940949890606662 0.0 0.0 0.0 26.940967945119528" Properties=species:S:1:pos:R:3:forces:R:3 energy=-15499.233184918874 free_energy=-15499.233184918874 stress="0.003852589353376899 -0.0 -9.181576151994517e-07 -0.0 0.009769197025722166 -0.012683429296365225 -9.181576151994517e-07 -0.012683429296365225 -0.016657215454948453" pbc="T T T"
Sr       0.00003612       0.00009431      10.76388531      -0.00009539      -0.00122102       0.07265269
Sr       3.94085191       2.75865092      14.77449094       0.00007353       0.43735442       1.24130032
Ti       1.97047269       1.97057450      12.32717349      -0.00001954      -0.48167844      -0.59226673
Ti       1.97020076       0.78812580      16.29474992       0.00007688       0.14772222       0.19672462
O        0.00000902       1.97050521      12.42121051      -0.00008819       0.16424824      -0.04204551
O        0.00018798       0.78819359      16.39325511      -0.00020363       0.05047718       0.25573349
O        1.97049401       3.94093312      12.34346768       0.00000977      -1.44444807      -1.21879983
O        1.97057142       2.75866935      16.37644831       0.00021572      -0.01612750       0.21196920
O        1.97043419       1.97038596      10.49217830       0.00010156      -0.26033422      -0.43352656
O        1.97054157       0.78814187      14.48846040      -0.00007071       1.40400745       0.30825830
10
Lattice="3.940949890606662 0.0 0.0 0.0 3.940949890606662 0.0 0.0 0.0 26.940967945119528" Properties=species:S:1:pos:R:3:forces:R:3 energy=-15499.419057718645 free_energy=-15499.419057718645 stress="0.0010219094257169898 -0.0 -0.0 -0.0 0.00529134233639444 -0.009719616514501397 -0.0 -0.009719616514501397 -0.015795983611891367" pbc="T T T"
Sr       0.00003612       0.00009431      10.77118396      -0.00011313       0.00217644      -0.24899437
Sr       3.94085191       2.75865092      14.87605884       0.00013601       0.24605509       0.08474485
Ti       1.97047269       1.97057450      12.28083977       0.00002005      -0.45234215      -0.26708800
Ti       1.97020076       0.78812580      16.30817815       0.00048285       0.11969719       0.16806787
O        0.00000902       1.97050521      12.41074240      -0.00007713       0.25977732       0.23045029
O        0.00018798       0.78819359      16.40628059      -0.00048388       0.04087360       0.50166002
O        1.97049401       3.94093312      12.25009884       0.00002777      -1.04424764      -0.37893998
O        1.97057142       2.75866935      16.38610681       0.00000874      -0.01735366       0.49664766
O        1.97043419       1.97038596      10.47018297       0.00007508      -0.22146326      -0.63948504
O        1.97054157       0.78814187      14.51564763      -0.00007636       1.06682706       0.05293670
10
Lattice="3.940949890606662 0.0 0.0 0.0 3.940949890606662 0.0 0.0 0.0 26.940967945119528" Properties=species:S:1:pos:R:3:forces:R:3 energy=-15499.465383875164 free_energy=-15499.465383875164 stress="0.0003819535679229719 -0.0 -0.0 -0.0 0.003907678810288867 -0.008641699474257239 -0.0 -0.008641699474257239 -0.014530762418146522" pbc="T T T"
Sr       0.00003612       0.00009431      10.76706845      -0.00012444       0.00372064      -0.41458344
Sr       3.94085191       2.75865092      14.91705223       0.00014630       0.18940983      -0.27991060
Ti       1.97047269       1.97057450      12.25605272       0.00002520      -0.44143784      -0.22080454
Ti       1.97020076       0.78812580      16.31733662       0.00059932       0.10927857       0.22177102
O        0.00000902       1.97050521      12.41170656      -0.00007662       0.28267968       0.22421819
O        0.00018798       0.78819359      16.42386170      -0.00054045       0.03718201       0.52501387
O        1.97049401       3.94093312      12.20521799       0.00004165      -0.90011879      -0.05002235
O        1.97057142       2.75866935      16.40231788      -0.00005374      -0.01721071       0.53625704
O        1.97043419       1.97038596      10.44658155       0.00007559      -0.20246897      -0.53051011
O        1.97054157       0.78814187      14.52812427      -0.00009307       0.93896533      -0.01142907
10
Lattice="3.940949890606662 0.0 0.0 0.0 3.940949890606662 0.0 0.0 0.0 26.940967945119528" Properties=species:S:1:pos:R:3:forces:R:3 energy=-15499.516936522183 free_energy=-15499.516936522183 stress="0.001073326252168159 -0.0 -9.181576151994517e-07 -0.0 0.0036551854661090173 -0.0076436621465354355 -9.181576151994517e-07 -0.0076436621465354355 -0.01180750693146495" pbc="T T T"
Sr       0.00003612       0.00009431      10.74913362      -0.00013653       0.00480642      -0.53524094
Sr       3.94085191       2.75865092      14.95367060       0.00012573       0.14390979      -0.48132748
Ti       1.97047269       1.97057450      12.22152451       0.00003445      -0.43102539      -0.14120576
Ti       1.97020076       0.78812580      16.33438850       0.00062735       0.10158480       0.27883794
O        0.00000902       1.97050521      12.41779772      -0.00005682       0.29782836       0.07409636
O        0.00018798       0.78819359      16.45807491      -0.00050805       0.03362514       0.43475478
O        1.97049401       3.94093312      12.15552805       0.00004525      -0.76753857       0.20116054
O        1.97057142       2.75866935      16.43543898      -0.00007122      -0.01621749       0.45958032
O        1.97043419       1.97038596      10.40753787       0.00007096      -0.18009266      -0.31378514
O        1.97054157       0.78814187      14.54222521      -0.00013138       0.81311935       0.02312913
10
Lattice="3.940949890606662 0.0 0.0 0.0 3.940949890606662 0.0 0.0 0.0 26.940967945119528" Properties=species:S:1:pos:R:3:forces:R:3 energy=-15499.569946066691 free_energy=-15499.569946066691 stress="0.0036313133681138312 -0.0 -9.181576151994517e-07 -0.0 0.005036094519368993 -0.006830174499468721 -9.181576151994517e-07 -0.006830174499468721 -0.007592245320084266" pbc="T T T"
Sr       0.00003612       0.00009431      10.71155089      -0.00014167       0.00500234      -0.53791695
Sr       3.94085191       2.75865092      14.97827033       0.00006633       0.11340288      -0.44238144
Ti       1.97047269       1.97057450      12.17937571       0.00000694      -0.42038308      -0.00384508
Ti       1.97020076       0.78812580      16.36220824       0.00055793       0.09722241       0.32270584
O        0.00000902       1.97050521      12.42579124      -0.00003702       0.30405429      -0.20638939
O        0.00018798       0.78819359      16.50947388      -0.00036278       0.03032410       0.21710138
O        1.97049401       3.94093312      12.10772916       0.00004577      -0.65898222       0.30046863
O        1.97057142       2.75866935      16.48648595      -0.00000900      -0.01466326       0.24781321
O        1.97043419       1.97038596      10.35502793       0.00006196      -0.15666734      -0.04074787
O        1.97054157       0.78814187      14.55940663      -0.00018846       0.70068989       0.14319168
10
Lattice="3.940949890606662 0.0 0.0 0.0 3.940949890606662 0.0 0.0 0.0 26.940967945119528" Properties=species:S:1:pos:R:3:forces:R:3 energy=-15499.603463416654 free_energy=-15499.603463416654 stress="0.0066768421777304125 -0.0 -1.8363152303989035e-06 -0.0 0.007309452774602835 -0.006521673540761706 -1.8363152303989035e-06 -0.006521673540761706 -0.004037139034031989" pbc="T T T"
Sr       0.00003612       0.00009431      10.67037525      -0.00013318       0.00403663      -0.39799391
Sr       3.94085191       2.75865092      14.97886871       0.00001723       0.10732916      -0.21901608
Ti       1.97047269       1.97057450      12.15272939      -0.00001028      -0.41625337       0.07002939
Ti       1.97020076       0.78812580      16.38992412       0.00036921       0.09792792       0.30057764
O        0.00000902       1.97050521      12.42593384      -0.00002160       0.30050617      -0.40955796
O        0.00018798       0.78819359      16.55079822      -0.00018538       0.02823148       0.02294298
O        1.97049401       3.94093312      12.08637672       0.00004422      -0.61227505       0.22026718
O        1.97057142       2.75866935      16.52855041       0.00008973      -0.01332114       0.04783280
O        1.97043419       1.97038596      10.31727658       0.00005245      -0.14304692       0.12612187
O        1.97054157       0.78814187      14.57448672      -0.00022266       0.64686539       0.23879661
10
Lattice="3.940949890606662 0.0 0.0 0.0 3.940949890606662 0.0 0.0 0.0 26.940967945119528" Properties=species:S:1:pos:R:3:forces:R:3 energy=-15499.624903810232 free_energy=-15499.624903810232 stress="0.009141177216925742 -0.0 -1.8363152303989035e-06 -0.0 0.00949558605639273 -0.006459238822928143 -1.8363152303989035e-06 -0.006459238822928143 -0.001632484239824625" pbc="T T T"
Sr       0.00003612       0.00009431      10.63236051      -0.00012470       0.00278579      -0.19529303
Sr       3.94085191       2.75865092      14.96916101      -0.00002263       0.11180262       0.02031866
Ti       1.97047269       1.97057450      12.13944195      -0.00001594      -0.41701056       0.06780565
Ti       1.97020076       0.78812580      16.41600512       0.00021623       0.10080858       0.20137986
O        0.00000902       1.97050521      12.41526279      -0.00002545       0.29293015      -0.47595285
O        0.00018798       0.78819359      16.57835222      -0.00006479       0.02652581      -0.08110056
O        1.97049401       3.94093312      12.08179165       0.00003368      -0.59489491       0.09453895
O        1.97057142       2.75866935      16.55739188       0.00017381      -0.01201091      -0.06612877
O        1.97043419       1.97038596      10.29569677       0.00005811      -0.13525082       0.16884974
O        1.97054157       0.78814187      14.58985606      -0.00022806       0.62431424       0.26558287
10
Lattice="3.940949890606662 0.0 0.0 0.0 3.940949890606662 0.0 0.0 0.0 26.940967945119528" Properties=species:S:1:pos:R:3:forces:R:3 energy=-15499.639170194563 free_energy=-15499.639170194563 stress="0.010556058101948096 -0.0 -1.8363152303989035e-06 -0.0 0.011012382436702222 -0.0064225125183201654 -1.8363152303989035e-06 -0.0064225125183201654 -0.0003837898831533708" pbc="T T T"
Sr       0.00003612       0.00009431      10.60200796      -0.00011699       0.00174732      -0.00805295
Sr       3.94085191       2.75865092      14.96182688      -0.00003625       0.11600612       0.17901383
Ti       1.97047269       1.97057450      12.13326977      -0.00002494      -0.41802795       0.00980105
Ti       1.97020076       0.78812580      16.43866402       0.00011416       0.10284053       0.08120109
O        0.00000902       1.97050521      12.39516057      -0.00002700       0.28552795      -0.42103023
O        0.00018798       0.78819359      16.59430980      -0.00001028       0.02477361      -0.09788575
O        1.97049401       3.94093312      12.08273567       0.00002700      -0.58357023       0.01311006
O        1.97057142       2.75866935      16.57465969       0.00022600      -0.01080249      -0.09114689
O        1.97043419       1.97038596      10.28586474       0.00005965      -0.12962088       0.11673683
O        1.97054157       0.78814187      14.60682086      -0.00021160       0.61112577       0.21825298
10
Lattice="3.940949890606662 0.0 0.0 0.0 3.940949890606662 0.0 0.0 0.0 26.940967945119528" Properties=species:S:1:pos:R:3:forces:R:3 energy=-15499.650043183272 free_energy=-15499.650043183272 stress="0.011025236643315017 -0.0 -1.8363152303989035e-06 -0.0 0.01173864511032499 -0.006267343881351457 -1.8363152303989035e-06 -0.006267343881351457 5.32531416815682e-05" pbc="T T T"
Sr       0.00003612       0.00009431      10.57848844      -0.00011133       0.00107344       0.12846671
Sr       3.94085191       2.75865092      14.96408726      -0.00004371       0.11381374       0.23151550
Ti       1.97047269       1.97057450      12.12686478      -0.00002468      -0.41327192      -0.06251175
Ti       1.97020076       0.78812580      16.45900390       0.00008382       0.10223786      -0.01794681
O        0.00000902       1.97050521      12.36776163      -0.00003548       0.27916421      -0.29390023
O        0.00018798       0.78819359      16.60483637      -0.00002031       0.02264062      -0.06095134
O        1.97049401       3.94093312      12.08120871       0.00002083      -0.56411340      -0.00126498
O        1.97057142       2.75866935      16.58630065       0.00025634      -0.00983138      -0.05898162
O        1.97043419       1.97038596      10.28021651       0.00006916      -0.12332579       0.01399066
O        1.97054157       0.78814187      14.62655171      -0.00019463       0.59161238       0.12158361
10
Lattice="3.940949890606662 0.0 0.0 0.0 3.940949890606662 0.0 0.0 0.0 26.940967945119528" Properties=species:S:1:pos:R:3:forces:R:3 energy=-15499.658266055303 free_energy=-15499.658266055303 stress="0.010758970934907176 -0.0 -1.8363152303989035e-06 -0.0 0.011698246175256215 -0.005975369759718031 -1.8363152303989035e-06 -0.005975369759718031 -4.774419599037149e-05" pbc="T T T"
Sr       0.00003612       0.00009431      10.56337994      -0.00010670       0.00106187       0.18241720
Sr       3.94085191       2.75865092      14.97785466      -0.00003882       0.10477708       0.18036674
Ti       1.97047269       1.97057450      12.11645723      -0.00002237      -0.40068920      -0.11048056
Ti       1.97020076       0.78812580      16.47570058       0.00011827       0.09867894      -0.06297737
O        0.00000902       1.97050521      12.33813897      -0.00004345       0.27323113      -0.15369618
O        0.00018798       0.78819359      16.61329701      -0.00007790       0.02027161      -0.00367256
O        1.97049401       3.94093312      12.07456482       0.00001954      -0.53525174       0.03912653
O        1.97057142       2.75866935      16.59551798       0.00025145      -0.00925057      -0.00194170
O        1.97043419       1.97038596      10.27374673       0.00007251      -0.11574901      -0.08557840
O        1.97054157       0.78814187      14.64666205      -0.00017278       0.56291964       0.01643629
10
Lattice="3.940949890606662 0.0 0.0 0.0 3.940949890606662 0.0 0.0 0.0 26.940967945119528" Properties=species:S:1:pos:R:3:forces:R:3 energy=-15499.663722209882 free_energy=-15499.663722209882 stress="0.010156659539336334 -0.0 -1.8363152303989035e-06 -0.0 0.011198768432587712 -0.00562646986594224 -1.8363152303989035e-06 -0.00562646986594224 -0.0002901378064030267" pbc="T T T"
Sr       0.00003612       0.00009431      10.55603778      -0.00011313       0.00147633       0.15552346
Sr       3.94085191       2.75865092      14.99821998      -0.00003702       0.09307291       0.07446969
Ti       1.97047269       1.97057450      12.10174366      -0.00000823      -0.38273365      -0.11523453
Ti       1.97020076       0.78812580      16.48804947       0.00018101       0.09356990      -0.05467965
O        0.00000902       1.97050521      12.31252030      -0.00004679       0.26696767      -0.05528000
O        0.00018798       0.78819359      16.62224658      -0.00014450       0.01812036       0.03882366
O        1.97049401       3.94093312      12.06480607       0.00002083      -0.50462476       0.09245944
O        1.97057142       2.75866935      16.60491312       0.00023526      -0.00907008       0.04335291
O        1.97043419       1.97038596      10.26337884       0.00007610      -0.10776368      -0.12882744
O        1.97054157       0.78814187      14.66340417      -0.00016378       0.53098474      -0.05060754
10
Lattice="3.940949890606662 0.0 0.0 0.0 3.940949890606662 0.0 0.0 0.0 26.940967945119528" Properties=species:S:1:pos:R:3:forces:R:3 energy=-15499.666770429105 free_energy=-15499.666770429105 stress="0.009697580731736608 -0.0 -1.8363152303989035e-06 -0.0 0.010771825141519966 -0.00534184100523041 -1.8363152303989035e-06 -0.00534184100523041 -0.00028003807263583276" pbc="T T T"
Sr       0.00003612       0.00009431      10.55293658      -0.00011570       0.00199749       0.09572628
Sr       3.94085191       2.75865092      15.01593674      -0.00003857       0.08367835      -0.01260612
Ti       1.97047269       1.97057450      12.08627852      -0.00000077      -0.36556639      -0.08849891
Ti       1.97020076       0.78812580      16.49675951       0.00022523       0.08935483      -0.02646077
O        0.00000902       1.97050521      12.29429349      -0.00004731       0.26094383      -0.01558706
O        0.00018798       0.78819359      16.63203163      -0.00018203       0.01656536       0.04750216
O        1.97049401       3.94093312      12.05717238       0.00002057      -0.48239577       0.11397443
O        1.97057142       2.75866935      16.61507306       0.00022111      -0.00904411       0.05463928
O        1.97043419       1.97038596      10.25032601       0.00008048      -0.10093637      -0.10657865
O        1.97054157       0.78814187      14.67451203      -0.00016327       0.50540278      -0.06211065
10
Lattice="3.940949890606662 0.0 0.0 0.0 3.940949890606662 0.0 0.0 0.0 26.940967945119528" Properties=species:S:1:pos:R:3:forces:R:3 energy=-15499.668516991776 free_energy=-15499.668516991776 stress="0.009486404480240735 -0.0 -1.8363152303989035e-06 -0.0 0.010624919923088054 -0.005165554743112115 -1.8363152303989035e-06 -0.005165554743112115 -4.5907880759972583e-05" pbc="T T T"
Sr       0.00003612       0.00009431      10.55169056      -0.00011750       0.00244872       0.04223191
Sr       3.94085191       2.75865092      15.02666251      -0.00004422       0.07816359      -0.05092173
Ti       1.97047269       1.97057450      12.07333338       0.00000103      -0.35229358      -0.05024193
Ti       1.97020076       0.78812580      16.50288333       0.00024117       0.08703647      -0.00173961
O        0.00000902       1.97050521      12.28147352      -0.00004705       0.25564170      -0.00847796
O        0.00018798       0.78819359      16.64089665      -0.00018872       0.01553203       0.03245761
O        1.97049401       3.94093312      12.05490983       0.00001903      -0.47160665       0.09383858
O        1.97057142       2.75866935      16.62443376       0.00022034      -0.00905980       0.04021822
O        1.97043419       1.97038596      10.23811201       0.00008330      -0.09589469      -0.05492082
O        1.97054157       0.78814187      14.68092441      -0.00016738       0.49003272      -0.04244429
10
Lattice="3.940949890606662 0.0 0.0 0.0 3.940949890606662 0.0 0.0 0.0 26.940967945119528" Properties=species:S:1:pos:R:3:forces:R:3 energy=-15499.669428709194 free_energy=-15499.669428709194 stress="0.009441414757095963 -0.0 -1.8363152303989035e-06 -0.0 0.010714899369377601 -0.005104956340508952 -1.8363152303989035e-06 -0.005104956340508952 0.00021576703957187115" pbc="T T T"
Sr       0.00003612       0.00009431      10.55210655      -0.00012007       0.00274825       0.01068525
Sr       3.94085191       2.75865092      15.02958556      -0.00005116       0.07652503      -0.04616416
Ti       1.97047269       1.97057450      12.06558641       0.00000951      -0.34446509      -0.01405134
Ti       1.97020076       0.78812580      16.50614731       0.00023526       0.08662432       0.00931691
O        0.00000902       1.97050521      12.27326575      -0.00004679       0.25180407      -0.01026410
O        0.00018798       0.78819359      16.64632506      -0.00018049       0.01497565       0.01091613
O        1.97049401       3.94093312      12.05826003       0.00001620      -0.47177275       0.04708924
O        1.97057142       2.75866935      16.63045088       0.00022471      -0.00909116       0.01735520
O        1.97043419       1.97038596      10.23033178       0.00008408      -0.09312021      -0.00869933
O        1.97054157       0.78814187      14.68326063      -0.00017124       0.48577189      -0.01618355
10
Lattice="3.940949890606662 0.0 0.0 0.0 3.940949890606662 0.0 0.0 0.0 26.940967945119528" Properties=species:S:1:pos:R:3:forces:R:3 energy=-15499.66974340885 free_energy=-15499.66974340885 stress="0.009448760018017558 -0.0 -1.8363152303989035e-06 -0.0 0.010859968272579115 -0.005142600802732129 -1.8363152303989035e-06 -0.005142600802732129 0.0003029920130158191" pbc="T T T"
Sr       0.00003612       0.00009431      10.55420219      -0.00012136       0.00282847       0.00318148
Sr       3.94085191       2.75865092      15.02653526      -0.00005502       0.07777407      -0.02271955
Ti       1.97047269       1.97057450      12.06498941       0.00000643      -0.34329447       0.00194735
Ti       1.97020076       0.78812580      16.50578421       0.00022523       0.08748950       0.00700600
O        0.00000902       1.97050521      12.27111105      -0.00004705       0.25069490      -0.00911559
O        0.00018798       0.78819359      16.64639106      -0.00016918       0.01494274      -0.00035558
O        1.97049401       3.94093312      12.06383458       0.00001620      -0.47894458       0.00904591
O        1.97057142       2.75866935      16.63092839       0.00023166      -0.00913256       0.00411659
O        1.97043419       1.97038596      10.22957042       0.00008562      -0.09301171       0.00872504
O        1.97054157       0.78814187      14.68197340      -0.00017226       0.49065339      -0.00183165
