10
Lattice="3.940949890606662 0.0 0.0 0.0 3.940949890606662 0.0 0.0 0.0 26.940967945119528" Properties=species:S:1:pos:R:3:forces:R:3 tau=tau20 tau_p=2 tau_q=0 stage=B constraint=xy_fixed_z_free force_label=raw_dft energy=-15499.786265547813 free_energy=-15499.786265547813 stress="0.011209786323970105 0.0 0.01401843046886523 0.0 0.008018270453536811 0.0 0.01401843046886523 0.0 -0.006160837597988321" pbc="T T T"
Sr       0.00003626       0.00009419      10.75260867      -0.00059907       0.00002854       0.15141561
Sr       0.78809185       3.94093570      14.64522241      -0.63945958       0.00002623       1.39290439
Ti       1.97047258       1.97057465      12.38212169       0.47479148      -0.00032550      -0.38966637
Ti       2.75839063       1.97041071      16.28444791      -0.13470498      -0.00007842       0.03056862
O        0.00000906       1.97050529      12.45001441       1.80123389      -0.00006813      -1.13608024
O        0.78837796       1.97047849      16.39256827      -0.00250863       0.00001234      -0.07966640
O        1.97049386       3.94093294      12.44909065      -0.18007724       0.00005554      -0.25900496
O        2.75876148       0.00000434      16.37955485      -0.05460612       0.00006094      -0.00565231
O        1.97043435       1.97038588      10.49176941       0.29435197       0.00017406       0.13751571
O        2.75873153       1.97042687      14.44792112      -1.55842122       0.00011441       0.15766647
10
Lattice="3.940949890606662 0.0 0.0 0.0 3.940949890606662 0.0 0.0 0.0 26.940967945119528" Properties=species:S:1:pos:R:3:forces:R:3 tau=tau20 tau_p=2 tau_q=0 stage=B constraint=xy_fixed_z_free force_label=raw_dft energy=-15499.851437220343 free_energy=-15499.851437220343 stress="0.01036508131798661 0.0 0.013204942821798514 0.0 0.007370969334821198 0.0 0.013204942821798514 0.0 -0.006246226256201869" pbc="T T T"
Sr       0.00003612       0.00009431      10.75572511      -0.00056153       0.00001363       0.12432646
Sr       0.78809198       3.94093589      14.67389106      -0.55916480       0.00001003       1.08992097
Ti       1.97047269       1.97057450      12.37410196       0.45801066      -0.00030956      -0.36298577
Ti       2.75839074       1.97041077      16.28507707      -0.12982631      -0.00006248      -0.02257531
O        0.00000902       1.97050521      12.42663198       1.68386611      -0.00006685      -0.93885400
O        0.78837796       1.97047857      16.39092866      -0.00080810       0.00001054      -0.01798255
O        1.97049401       3.94093312      12.44375987      -0.22211349       0.00006299      -0.13350633
O        2.75876140       0.00000441      16.37943847      -0.05239574       0.00005014       0.05653753
O        1.97043419       1.97038596      10.49459969       0.29003638       0.00017406       0.01353609
O        2.75873155       1.97042684      14.45116609      -1.46704344       0.00011724       0.19158267
10
Lattice="3.940949890606662 0.0 0.0 0.0 3.940949890606662 0.0 0.0 0.0 26.940967945119528" Properties=species:S:1:pos:R:3:forces:R:3 tau=tau20 tau_p=2 tau_q=0 stage=B constraint=xy_fixed_z_free force_label=raw_dft energy=-15499.908783307043 free_energy=-15499.908783307043 stress="0.009331235843272027 0.0 0.012331774929743836 0.0 0.00659879878043846 0.0 0.012331774929743836 0.0 -0.0065565635301392845" pbc="T T T"
Sr       0.00003612       0.00009431      10.75931333      -0.00083124       0.00000591       0.07677006
Sr       0.78809198       3.94093589      14.70542627      -0.48116036      -0.00000309       0.78861365
Ti       1.97047269       1.97057450      12.36368860       0.44444861      -0.00030133      -0.31570653
Ti       2.75839074       1.97041077      16.28449520      -0.12346206      -0.00003702       0.00613517
O        0.00000902       1.97050521      12.39954420       1.55242386      -0.00005991      -0.72223239
O        0.78837796       1.97047857      16.39034033       0.00108501       0.00000360       0.03725297
O        1.97049401       3.94093312      12.43979099      -0.25822720       0.00006299      -0.02916017
O        2.75876140       0.00000441      16.38098079      -0.05020182       0.00003111       0.11019208
O        1.97043419       1.97038596      10.49513562       0.28300004       0.00017561      -0.10235639
O        2.75873155       1.97042684      14.45660462      -1.36707458       0.00012238       0.15049155
10
Lattice="3.940949890606662 0.0 0.0 0.0 3.940949890606662 0.0 0.0 0.0 26.940967945119528" Properties=species:S:1:pos:R:3:forces:R:3 tau=tau20 tau_p=2 tau_q=0 stage=B constraint=xy_fixed_z_free force_label=raw_dft energy=-15499.967205876086 free_energy=-15499.967205876086 stress="0.007687733712065009 0.0 0.011095016622070174 0.0 0.005401521250218374 0.0 0.011095016622070174 0.0 -0.00698350682120703" pbc="T T T"
Sr       0.00003612       0.00009431      10.76415284      -0.00148610      -0.00001003      -0.01995330
Sr       0.78809198       3.94093589      14.75272907      -0.37951128      -0.00002340       0.36082939
Ti       1.97047269       1.97057450      12.34603004       0.42640306      -0.00030648      -0.23512687
Ti       2.75839074       1.97041077      16.28461277      -0.11358260       0.00000437       0.05864918
O        0.00000902       1.97050521      12.35726891       1.36625825      -0.00004268      -0.40905146
O        0.78837796       1.97047857      16.39140774       0.00358360      -0.00000231       0.11930741
O        1.97049401       3.94093312      12.43643654      -0.30031565       0.00007302       0.07828855
O        2.75876140       0.00000441      16.38598234      -0.04696583       0.00000823       0.18504667
O        1.97043419       1.97038596      10.49158009       0.27048725       0.00017715      -0.23324611
O        2.75873155       1.97042684      14.46511961      -1.22487072       0.00012187       0.09525654
10
Lattice="3.940949890606662 0.0 0.0 0.0 3.940949890606662 0.0 0.0 0.0 26.940967945119528" Properties=species:S:1:pos:R:3:forces:R:3 tau=tau20 tau_p=2 tau_q=0 stage=B constraint=xy_fixed_z_free force_label=raw_dft energy=-15499.998278147152 free_energy=-15499.998278147152 stress="0.00572838536122938 0.0 0.009722370987346995 0.0 0.004028875615495194 0.0 0.009722370987346995 0.0 -0.007215800697852492" pbc="T T T"
Sr       0.00003612       0.00009431      10.76750862      -0.00248626      -0.00003548      -0.16949535
Sr       0.78809198       3.94093589      14.80908607      -0.27819696      -0.00004577      -0.11114982
Ti       1.97047269       1.97057450      12.32136593       0.40948829      -0.00031342      -0.13274991
Ti       2.75839074       1.97041077      16.28728459      -0.10208719       0.00004577       0.12815227
O        0.00000902       1.97050521      12.30374498       1.16106134      -0.00001440      -0.05023524
O        0.78837796       1.97047857      16.39687424       0.00590454      -0.00001388       0.20943718
O        1.97049401       3.94093312      12.43601339      -0.33630466       0.00008330       0.13507445
O        2.75876140       0.00000441      16.39744266      -0.04304772      -0.00001774       0.25687403
O        1.97043419       1.97038596      10.47982435       0.25233989       0.00018409      -0.31485935
O        2.75873155       1.97042684      14.47617513      -1.06667125       0.00012753       0.04895149
10
Lattice="3.940949890606662 0.0 0.0 0.0 3.940949890606662 0.0 0.0 0.0 26.940967945119528" Properties=species:S:1:pos:R:3:forces:R:3 tau=tau20 tau_p=2 tau_q=0 stage=B constraint=xy_fixed_z_free force_label=raw_dft energy=-15500.00533746041 free_energy=-15500.00533746041 stress="0.005645751175861428 0.0 0.009457941594169553 0.0 0.0041179369041695404 0.0 0.009457941594169553 0.0 -0.006669496916808817" pbc="T T T"
Sr       0.00003612       0.00009431      10.76444443      -0.00266829      -0.00003805      -0.19972921
Sr       0.78809198       3.94093589      14.81924624      -0.26074328      -0.00004911      -0.16549214
Ti       1.97047269       1.97057450      12.31321976       0.41028533      -0.00031753      -0.11192243
Ti       2.75839074       1.97041077      16.29080444      -0.10056587       0.00005322       0.13970989
O        0.00000902       1.97050521      12.29091338       1.11798327      -0.00001440       0.00515789
O        0.78837796       1.97047857      16.40248817       0.00616653      -0.00001466       0.20347248
O        1.97049401       3.94093312      12.43843394      -0.34094679       0.00008150       0.09947958
O        2.75876140       0.00000441      16.40533646      -0.04208922      -0.00001543       0.24253756
O        1.97043419       1.97038596      10.47087890       0.24581700       0.00019026      -0.25956803
O        2.75873155       1.97042684      14.47955423      -1.03323869       0.00012393       0.04635442
10
Lattice="3.940949890606662 0.0 0.0 0.0 3.940949890606662 0.0 0.0 0.0 26.940967945119528" Properties=species:S:1:pos:R:3:forces:R:3 tau=tau20 tau_p=2 tau_q=0 stage=B constraint=xy_fixed_z_free force_label=raw_dft energy=-15500.015546491353 free_energy=-15500.015546491353 stress="0.005933134509418857 -0.0 0.009210957195680899 -0.0 0.004635777799142032 0.0 0.009210957195680899 0.0 -0.005579643827567068" pbc="T T T"
Sr       0.00003612       0.00009431      10.75684037      -0.00268397      -0.00003959      -0.21390473
Sr       0.78809198       3.94093589      14.82718661      -0.24581340      -0.00005168      -0.17085649
Ti       1.97047269       1.97057450      12.30219436       0.41501873      -0.00031419      -0.07463115
Ti       2.75839074       1.97041077      16.29763876      -0.09999843       0.00004808       0.14158422
O        0.00000902       1.97050521      12.27707511       1.07395828      -0.00001414       0.03510944
O        0.78837796       1.97047857      16.41251054       0.00619970      -0.00001388       0.17212482
O        1.97049401       3.94093312      12.44241625      -0.34373310       0.00007353       0.02236577
O        2.75876140       0.00000441      16.41855011      -0.04097310      -0.00001003       0.19929058
O        1.97043419       1.97038596      10.45676415       0.23703643       0.00019566      -0.16434054
O        2.75873155       1.97042684      14.48414371      -0.99901113       0.00012650       0.05325783
10
Lattice="3.940949890606662 0.0 0.0 0.0 3.940949890606662 0.0 0.0 0.0 26.940967945119528" Properties=species:S:1:pos:R:3:forces:R:3 tau=tau20 tau_p=2 tau_q=0 stage=B constraint=xy_fixed_z_free force_label=raw_dft energy=-15500.027367660734 free_energy=-15500.027367660734 stress="0.00668051480819121 -0.0 0.008943773329657859 -0.0 0.005712776681770988 0.0 0.008943773329657859 0.0 -0.00378464568985214" pbc="T T T"
Sr       0.00003612       0.00009431      10.74197816      -0.00257522      -0.00003754      -0.20198355
Sr       0.78809198       3.94093589      14.83372749      -0.23134298      -0.00005759      -0.12411203
Ti       1.97047269       1.97057450      12.28670035       0.42408058      -0.00031213      -0.01462546
Ti       2.75839074       1.97041077      16.30980767      -0.10026402       0.00004011       0.12797640
O        0.00000902       1.97050521      12.26012271       1.02203408      -0.00001903       0.04337888
O        0.78837796       1.97047857      16.42905389       0.00596110      -0.00001157       0.11056875
O        1.97049401       3.94093312      12.44711519      -0.34486335       0.00005888      -0.09796032
O        2.75876140       0.00000441      16.43972225      -0.03940447       0.00000026       0.12072152
O        1.97043419       1.97038596      10.43571655       0.22484966       0.00021160      -0.03164565
O        2.75873155       1.97042684      14.49137570      -0.95847538       0.00012701       0.06768172
10
Lattice="3.940949890606662 0.0 0.0 0.0 3.940949890606662 0.0 0.0 0.0 26.940967945119528" Properties=species:S:1:pos:R:3:forces:R:3 tau=tau20 tau_p=2 tau_q=0 stage=B constraint=xy_fixed_z_free force_label=raw_dft energy=-15500.035178688473 free_energy=-15500.035178688473 stress="0.007862183658952906 -0.0 0.008693116300708409 -0.0 0.0072745627852252555 0.0 0.008693116300708409 0.0 -0.001522305326000691" pbc="T T T"
Sr       0.00003612       0.00009431      10.71925298      -0.00203297      -0.00003445      -0.14815185
Sr       0.78809198       3.94093589      14.83739067      -0.21992445      -0.00005836      -0.02508831
Ti       1.97047269       1.97057450      12.26932605       0.43626041      -0.00029568       0.04488221
Ti       2.75839074       1.97041077      16.32733007      -0.10134337       0.00002237       0.09469450
O        0.00000902       1.97050521      12.24249470       0.96883384      -0.00002648       0.02993021
O        0.78837796       1.97047857      16.45080563       0.00547414      -0.00000926       0.02909640
O        1.97049401       3.94093312      12.44891128      -0.34378349       0.00003934      -0.22289253
O        2.75876140       0.00000441      16.46692130      -0.03746329       0.00001723       0.02016490
O        1.97043419       1.97038596      10.41123379       0.21110325       0.00021546       0.09720724
O        2.75873155       1.97042684      14.50165348      -0.91712381       0.00012984       0.08015697
10
Lattice="3.940949890606662 0.0 0.0 0.0 3.940949890606662 0.0 0.0 0.0 26.940967945119528" Properties=species:S:1:pos:R:3:forces:R:3 tau=tau20 tau_p=2 tau_q=0 stage=B constraint=xy_fixed_z_free force_label=raw_dft energy=-15500.037744177742 free_energy=-15500.037744177742 stress="0.0083745156082342 -0.0 0.008633436055720445 -0.0 0.007849329452340112 0.0 0.008633436055720445 0.0 -0.0007997152828387224" pbc="T T T"
Sr       0.00003612       0.00009431      10.70854353      -0.00155423      -0.00002905      -0.10047768
Sr       0.78809198       3.94093589      14.83716000      -0.21796887      -0.00005656       0.01985663
Ti       1.97047269       1.97057450      12.26495819       0.44177877      -0.00029105       0.04312280
Ti       2.75839074       1.97041077      16.33510814      -0.10210211       0.00001517       0.06872456
O        0.00000902       1.97050521      12.23813891       0.95365019      -0.00003291       0.02342275
O        0.78837796       1.97047857      16.45863198       0.00522937      -0.00000668       0.00630614
O        1.97049401       3.94093312      12.44473595      -0.34261544       0.00003265      -0.22889914
O        2.75876140       0.00000441      16.47628473      -0.03648087       0.00002314      -0.00785138
O        1.97043419       1.97038596      10.40504261       0.20690824       0.00022009       0.10314829
O        2.75873155       1.97042684      14.50671591      -0.90684531       0.00012496       0.07264703
10
Lattice="3.940949890606662 0.0 0.0 0.0 3.940949890606662 0.0 0.0 0.0 26.940967945119528" Properties=species:S:1:pos:R:3:forces:R:3 tau=tau20 tau_p=2 tau_q=0 stage=B constraint=xy_fixed_z_free force_label=raw_dft energy=-15500.04065212228 free_energy=-15500.04065212228 stress="0.008871238878057103 -0.0 0.00857467396834768 -0.0 0.008326771412243828 0.0 0.00857467396834768 0.0 -0.00022678493095426458" pbc="T T T"
Sr       0.00003612       0.00009431      10.69676314      -0.00095208      -0.00002545      -0.03716838
Sr       0.78809198       3.94093589      14.83729013      -0.21562814      -0.00005579       0.05539056
Ti       1.97047269       1.97057450      12.26195117       0.44700017      -0.00028822       0.02141986
Ti       2.75839074       1.97041077      16.34358577      -0.10275517       0.00001106       0.03407226
O        0.00000902       1.97050521      12.23494167       0.93939908      -0.00003959       0.02432032
O        0.78837796       1.97047857      16.46591665       0.00502522      -0.00000489      -0.00549985
O        1.97049401       3.94093312      12.43585385      -0.34143119       0.00002982      -0.19428181
O        2.75876140       0.00000441      16.48462197      -0.03517758       0.00002597      -0.02341067
O        1.97043419       1.97038596      10.40142705       0.20311844       0.00022086       0.07141496
O        2.75873155       1.97042684      14.51296856      -0.89859876       0.00012650       0.05374248
10
Lattice="3.940949890606662 0.0 0.0 0.0 3.940949890606662 0.0 0.0 0.0 26.940967945119528" Properties=species:S:1:pos:R:3:forces:R:3 tau=tau20 tau_p=2 tau_q=0 stage=B constraint=xy_fixed_z_free force_label=raw_dft energy=-15500.04333815798 free_energy=-15500.04333815798 stress="0.009374389251186402 -0.0 0.008470004000214942 -0.0 0.00869127998547801 0.0 0.008470004000214942 0.0 0.00023872097995185744" pbc="T T T"
Sr       0.00003612       0.00009431      10.68170769      -0.00014630      -0.00002108       0.05093767
Sr       0.78809198       3.94093589      14.83974019      -0.21010541      -0.00005476       0.07440181
Ti       1.97047269       1.97057450      12.25898373       0.45119981      -0.00028205      -0.02751620
Ti       2.75839074       1.97041077      16.35469109      -0.10314417       0.00000617      -0.01180188
O        0.00000902       1.97050521      12.23199890       0.92067425      -0.00004859       0.03779779
O        0.78837796       1.97047857      16.47435715       0.00489718      -0.00000334      -0.00480719
O        1.97049401       3.94093312      12.41820141      -0.33992323       0.00002777      -0.09902861
O        2.75876140       0.00000441      16.49363466      -0.03309524       0.00002803      -0.02561307
O        1.97043419       1.97038596      10.39955581       0.19826522       0.00022086      -0.01029290
O        2.75873155       1.97042684      14.52244934      -0.88862210       0.00012701       0.01592258
10
Lattice="3.940949890606662 0.0 0.0 0.0 3.940949890606662 0.0 0.0 0.0 26.940967945119528" Properties=species:S:1:pos:R:3:forces:R:3 tau=tau20 tau_p=2 tau_q=0 stage=B constraint=xy_fixed_z_free force_label=raw_dft energy=-15500.043989326396 free_energy=-15500.043989326396 stress="0.009332154000887227 -0.0 0.008414914543302975 -0.0 0.00855722897365889 0.0 0.008414914543302975 0.0 0.00015333232173830844" pbc="T T T"
Sr       0.00003612       0.00009431      10.68018267      -0.00005605      -0.00002211       0.05943722
Sr       0.78809198       3.94093589      14.84269625      -0.20596696      -0.00005605       0.05282614
Ti       1.97047269       1.97057450      12.25808776       0.44892490      -0.00027922      -0.04137471
Ti       2.75839074       1.97041077      16.35640668      -0.10285544       0.00000514      -0.01579197
O        0.00000902       1.97050521      12.23221981       0.91631777      -0.00004937       0.04525784
O        0.78837796       1.97047857      16.47536318       0.00507022      -0.00000360       0.00495812
O        1.97049401       3.94093312      12.41129594      -0.33968464       0.00003240      -0.05432047
O        2.75876140       0.00000441      16.49411330      -0.03241827       0.00002571      -0.01494042
O        1.97043419       1.97038596      10.40005595       0.19684777       0.00021983      -0.03957493
O        2.75873155       1.97042684      14.52489842      -0.88617956       0.00012753       0.00352318
10
Lattice="3.940949890606662 0.0 0.0 0.0 3.940949890606662 0.0 0.0 0.0 26.940967945119528" Properties=species:S:1:pos:R:3:forces:R:3 tau=tau20 tau_p=2 tau_q=0 stage=B constraint=xy_fixed_z_free force_label=raw_dft energy=-15500.044604575785 free_energy=-15500.044604575785 stress="0.009173312733457721 -0.0 0.008334116673165423 -0.0 0.008279945373868655 0.0 0.008334116673165423 0.0 -1.1936048997592873e-05" pbc="T T T"
Sr       0.00003612       0.00009431      10.68118875      -0.00012573      -0.00002391       0.04650791
Sr       0.78809198       3.94093589      14.84754151      -0.19939496      -0.00005734       0.01333014
Ti       1.97047269       1.97057450      12.25598394       0.44315534      -0.00028488      -0.04468346
Ti       2.75839074       1.97041077      16.35708897      -0.10240241       0.00001311      -0.00937064
O        0.00000902       1.97050521      12.23341699       0.91290103      -0.00004988       0.04671155
O        0.78837796       1.97047857      16.47602027       0.00545897      -0.00000386       0.01706673
O        1.97049401       3.94093312      12.40369993      -0.33919716       0.00003574      -0.00884280
O        2.75876140       0.00000441      16.49365871      -0.03167471       0.00002057      -0.00030262
O        1.97043419       1.97038596      10.39968584       0.19473972       0.00022317      -0.05447576
O        2.75873155       1.97042684      14.52703504      -0.88346036       0.00012727      -0.00594131
10
Lattice="3.940949890606662 0.0 0.0 0.0 3.940949890606662 0.0 0.0 0.0 26.940967945119528" Properties=species:S:1:pos:R:3:forces:R:3 tau=tau20 tau_p=2 tau_q=0 stage=B constraint=xy_fixed_z_free force_label=raw_dft energy=-15500.044954786295 free_energy=-15500.044954786295 stress="0.009069560922940183 -0.0 0.008268927482486262 -0.0 0.008093559377983168 0.0 0.008268927482486262 0.0 -5.2334984066368754e-05" pbc="T T T"
Sr       0.00003612       0.00009431      10.68274289      -0.00026714      -0.00002648       0.02534979
Sr       0.78809198       3.94093589      14.85127502      -0.19392134      -0.00005836      -0.01304089
Ti       1.97047269       1.97057450      12.25299004       0.43744312      -0.00028231      -0.03337549
Ti       2.75839074       1.97041077      16.35759178      -0.10228568       0.00001131      -0.00062478
O        0.00000902       1.97050521      12.23494152       0.91153603      -0.00004937       0.03490324
O        0.78837796       1.97047857      16.47731472       0.00583229      -0.00000360       0.02029835
O        1.97049401       3.94093312      12.39869866      -0.33825150       0.00003934       0.01079606
O        2.75876140       0.00000441      16.49387588      -0.03112732       0.00001543       0.00578858
O        1.97043419       1.97038596      10.39747454       0.19239462       0.00022497      -0.04267363
O        2.75873155       1.97042684      14.52841491      -0.88135308       0.00012958      -0.00742123
10
Lattice="3.940949890606662 0.0 0.0 0.0 3.940949890606662 0.0 0.0 0.0 26.940967945119528" Properties=species:S:1:pos:R:3:forces:R:3 tau=tau20 tau_p=2 tau_q=0 stage=B constraint=xy_fixed_z_free force_label=raw_dft energy=-15500.045155198137 free_energy=-15500.045155198137 stress="0.009069560922940183 -0.0 0.008226692232187086 -0.0 0.0080393880786864 0.0 0.008226692232187086 0.0 4.3153407914374227e-05" pbc="T T T"
Sr       0.00003612       0.00009431      10.68366629      -0.00040649      -0.00002674       0.00733947
Sr       0.78809198       3.94093589      14.85318519      -0.19037708      -0.00005991      -0.02022635
Ti       1.97047269       1.97057450      12.24978741       0.43315812      -0.00028308      -0.01442646
Ti       2.75839074       1.97041077      16.35847149      -0.10251220       0.00001980       0.00435879
O        0.00000902       1.97050521      12.23652280       0.91178980      -0.00005219       0.01423054
O        0.78837796       1.97047857      16.47935160       0.00610971      -0.00000643       0.01502013
O        1.97049401       3.94093312      12.39577298      -0.33701763       0.00003780       0.01095213
O        2.75876140       0.00000441      16.49496625      -0.03074962       0.00001697       0.00343756
O        1.97043419       1.97038596      10.39421854       0.19015596       0.00022754      -0.01676076
O        2.75873155       1.97042684      14.52937742      -0.88015058       0.00012624      -0.00392530
