10
Lattice="3.940949890606662 0.0 0.0 0.0 3.940949890606662 0.0 0.0 0.0 26.940967945119528" Properties=species:S:1:pos:R:3:forces:R:3 tau=tau76 tau_p=7 tau_q=6 stage=A constraint=rigid_scf force_label=raw_dft energy=-15497.079155718095 free_energy=-15497.079155718095 stress="0.011581640158125885 0.001079753355474555 -0.006148901548990729 0.001079753355474555 0.017910500599695702 -0.0068366016027751175 -0.006148901548990729 -0.0068366016027751175 -0.021790634681528587" pbc="T T T"
Sr       0.00003626       0.00009419      10.75260867       0.00746803      -0.00541089       0.60273446
Sr       2.75856679       2.36455575      14.64522241       1.51638677       0.90569371       5.07713659
Ti       1.97047258       1.97057465      12.38212169      -1.54658154      -0.78496679      -5.05498988
Ti       0.78791569       0.39403075      16.28444791      -0.01155094       0.03994029      -0.58154934
O        0.00000906       1.97050529      12.45001441      -0.43817229       0.35428670      -0.58147658
O        2.75885291       0.39409854      16.39256827      -0.01932287      -0.03956825      -0.11212967
O        1.97049386       3.94093294      12.44909065       0.92318416      -0.68894380      -1.03027652
O        0.78828653       2.36457427      16.37955485      -0.12751258      -0.00911816      -0.13711539
O        1.97043435       1.97038588      10.49176941      -0.09660534      -0.09946133       0.43031422
O        0.78825658       0.39404691      14.44792112      -0.20729314       0.32754826       1.38735235
