10
Lattice="3.940949890606662 0.0 0.0 0.0 3.940949890606662 0.0 0.0 0.0 26.940967945119528" Properties=species:S:1:pos:R:3:forces:R:3 tau=tau45 tau_p=4 tau_q=5 stage=A constraint=rigid_scf force_label=raw_dft energy=-15496.407450870789 free_energy=-15496.407450870789 stress="0.015405766625431598 -0.0 0.004940606127388249 -0.0 0.018550456457489723 2.7544728455983548e-06 0.004940606127388249 2.7544728455983548e-06 -0.026221663332481143" pbc="T T T"
Sr       0.00003626       0.00009419      10.75260867      -0.00510570      -0.00004088       0.70531376
Sr       1.57628183       1.97046076      14.64522241      -1.21690955      -0.00035995       6.61502523
Ti       1.97047258       1.97057465      12.38212169       1.11073636       0.00047334      -7.39067460
Ti       3.54658061       3.94088565      16.28444791       0.04398926       0.00010259      -1.06912434
O        0.00000906       1.97050529      12.45001441       0.33654378      -0.00026148      -0.23289155
O        1.57656794       0.00000355      16.39256827      -0.00224406       0.00003625      -0.10834577
O        1.97049386       3.94093294      12.44909065      -0.54083823      -0.00021983      -0.34912856
O        3.54695145       1.97047928      16.37955485       0.06573359      -0.00013884      -0.08686421
O        1.97043435       1.97038588      10.49176941       0.04103712       0.00029593       0.44004276
O        3.54692150       3.94090181      14.44792112       0.16705743       0.00011261       1.47664754
