10
Lattice="3.940949890606662 0.0 0.0 0.0 3.940949890606662 0.0 0.0 0.0 26.940967945119528" Properties=species:S:1:pos:R:3:forces:R:3 tau=tau32 tau_p=3 tau_q=2 stage=B constraint=xy_fixed_z_free force_label=raw_dft energy=-15498.233658543635 free_energy=-15498.233658543635 stress="0.014809882333167155 0.0019070133667692612 0.012772490585039572 0.0019070133667692612 0.009287164277742455 0.006841192390851115 0.012772490585039572 0.006841192390851115 -0.01570967679606262" pbc="T T T"
Sr       0.00003626       0.00009419      10.75260867       0.00628326      -0.00353141       0.40422858
Sr       1.18218684       0.78817579      14.64522241      -1.04603738      -1.03039916       3.41156516
Ti       1.97047258       1.97057465      12.38212169       0.88886456       1.21045454      -2.46090362
Ti       3.15248562       2.75860069      16.28444791      -0.12375619      -0.04522082      -0.18908433
O        0.00000906       1.97050529      12.45001441       1.45958801      -0.83312536      -1.45072259
O        1.18247295       2.75866847      16.39256827       0.01637896       0.07793425      -0.16356381
O        1.97049386       3.94093294      12.44909065      -0.35584068       0.66649833      -0.76763062
O        3.15285647       0.78819431      16.37955485       0.00415053       0.00751379      -0.04762917
O        1.97043435       1.97038588      10.49176941       0.22292776       0.14863573       0.32609687
O        3.15282651       2.75861684      14.44792112      -1.07255857      -0.19875990       0.93764301
10
Lattice="3.940949890606662 0.0 0.0 0.0 3.940949890606662 0.0 0.0 0.0 26.940967945119528" Properties=species:S:1:pos:R:3:forces:R:3 tau=tau32 tau_p=3 tau_q=2 stage=B constraint=xy_fixed_z_free force_label=raw_dft energy=-15498.59841367472 free_energy=-15498.59841367472 stress="0.011945230573744865 0.001711445794731778 0.01085262301165752 0.001711445794731778 0.007549091912169892 0.006034131847090797 0.01085262301165752 0.006034131847090797 -0.017647907521748663" pbc="T T T"
Sr       0.00003612       0.00009431      10.76092843       0.00609429      -0.00341134       0.43066389
Sr       1.18218697       0.78817596      14.71543857      -0.79436263      -0.84283153       2.39491652
Ti       1.97047269       1.97057450      12.33147234       0.70891562       0.93773069      -1.11468866
Ti       3.15248573       2.75860075      16.28055624      -0.10761867      -0.04003902       0.08587227
O        0.00000902       1.97050521      12.42015610       1.28849729      -0.75765422      -1.29568430
O        1.18247295       2.75866855      16.38920191       0.01788665       0.07071614      -0.03644462
O        1.97049401       3.94093312      12.43329148      -0.39295712       0.68684527      -0.63444464
O        3.15285639       0.78819439      16.37857452       0.00316914       0.00802518       0.06995020
O        1.97043419       1.97038596      10.49848102       0.20386431       0.14101678      -0.48276858
O        3.15282654       2.75861683      14.46721935      -0.93348862      -0.20039769       0.58262792
10
Lattice="3.940949890606662 0.0 0.0 0.0 3.940949890606662 0.0 0.0 0.0 26.940967945119528" Properties=species:S:1:pos:R:3:forces:R:3 tau=tau32 tau_p=3 tau_q=2 stage=B constraint=xy_fixed_z_free force_label=raw_dft energy=-15498.851583628211 free_energy=-15498.851583628211 stress="0.008632517898105244 0.0015011877008511037 0.009186166940070515 0.0015011877008511037 0.00529134233639444 0.005452938076669543 0.009186166940070515 0.005452938076669543 -0.01835121625499144" pbc="T T T"
Sr       0.00003612       0.00009431      10.77409784       0.00309844      -0.00576338       0.24729230
Sr       1.18218697       0.78817596      14.79267604      -0.59987873      -0.70295426       1.38797225
Ti       1.97047269       1.97057450      12.29252008       0.58770970       0.74292540      -0.41229028
Ti       3.15248573       2.75860075      16.28225453      -0.09240236      -0.03483562       0.23765632
O        0.00000902       1.97050521      12.37972812       1.11843887      -0.66952066      -0.98607231
O        1.18247295       2.75866855      16.38764252       0.01758377       0.06285062       0.15511825
O        1.97049401       3.94093312      12.41329853      -0.41349072       0.68868464      -0.41449243
O        3.15285639       0.78819439      16.38032389       0.00251840       0.00772411       0.24533518
O        1.97043419       1.97038596      10.48639856       0.18213952       0.12814507      -0.80292389
O        3.15282654       2.75861683      14.48637985      -0.80571688      -0.21725616       0.34240461
10
Lattice="3.940949890606662 0.0 0.0 0.0 3.940949890606662 0.0 0.0 0.0 26.940967945119528" Properties=species:S:1:pos:R:3:forces:R:3 tau=tau32 tau_p=3 tau_q=2 stage=B constraint=xy_fixed_z_free force_label=raw_dft energy=-15499.048515542554 free_energy=-15499.048515542554 stress="0.0032998584690268292 0.0012395127805192598 0.007140511773406136 0.0012395127805192598 0.001296438552661626 0.004783601175189143 0.007140511773406136 0.004783601175189143 -0.017845311409016542" pbc="T T T"
Sr       0.00003612       0.00009431      10.79305874      -0.00298402      -0.01004967      -0.24113117
Sr       1.18218697       0.78817596      14.90853223      -0.39576091      -0.54425137       0.03654000
Ti       1.97047269       1.97057450      12.24229743       0.46810841       0.54309798      -0.15438086
Ti       3.15248573       2.75860075      16.29267536      -0.07294631      -0.02946638       0.34607948
O        0.00000902       1.97050521      12.30924903       0.88315028      -0.53408138      -0.41624643
O        1.18247295       2.75866855      16.39327888       0.01612210       0.05113924       0.48714152
O        1.97049401       3.94093312      12.38153953      -0.40980402       0.65585345      -0.09494570
O        3.15285639       0.78819439      16.39215830       0.00160848       0.00762435       0.54067574
O        1.97043419       1.97038596      10.44683317       0.14957007       0.10483390      -0.63741118
O        3.15282654       2.75861683      14.51569729      -0.63706383      -0.24470012       0.13367860
10
Lattice="3.940949890606662 0.0 0.0 0.0 3.940949890606662 0.0 0.0 0.0 26.940967945119528" Properties=species:S:1:pos:R:3:forces:R:3 tau=tau32 tau_p=3 tau_q=2 stage=B constraint=xy_fixed_z_free force_label=raw_dft energy=-15499.095228508897 free_energy=-15499.095228508897 stress="0.001803261556251723 0.001140351758077719 0.0064344485673177585 0.001140351758077719 0.0003057464858614174 0.004570588608462871 0.0064344485673177585 0.004570588608462871 -0.016552545486815715" pbc="T T T"
Sr       0.00003612       0.00009431      10.79263727      -0.00530059      -0.01142804      -0.45452836
Sr       1.18218697       0.78817596      14.94981023      -0.33591823      -0.49224490      -0.34533309
Ti       1.97047269       1.97057450      12.21787652       0.43330159       0.48310463      -0.19375422
Ti       3.15248573       2.75860075      16.30436397      -0.06708600      -0.02886578       0.36434023
O        0.00000902       1.97050521      12.27513517       0.79179179      -0.47746491      -0.18918820
O        1.18247295       2.75866855      16.40760215       0.01517285       0.04631380       0.55645897
O        1.97049401       3.94093312      12.36834490      -0.39930441       0.63474932      -0.02336336
O        3.15285639       0.78819439      16.40990656       0.00109040       0.00796245       0.58817353
O        1.97043419       1.97038596      10.41990235       0.13622682       0.09417180      -0.42277446
O        3.15282654       2.75861683      14.52974084      -0.56997449      -0.25629836       0.11996870
10
Lattice="3.940949890606662 0.0 0.0 0.0 3.940949890606662 0.0 0.0 0.0 26.940967945119528" Properties=species:S:1:pos:R:3:forces:R:3 tau=tau32 tau_p=3 tau_q=2 stage=B constraint=xy_fixed_z_free force_label=raw_dft energy=-15499.157010323279 free_energy=-15499.157010323279 stress="0.001110052556776137 0.0010136460071801946 0.005665032485780617 0.0010136460071801946 0.00025341150179504865 0.004349312623199803 0.005665032485780617 0.004349312623199803 -0.014189207785292327" pbc="T T T"
Sr       0.00003612       0.00009431      10.77862911      -0.00763103      -0.01255881      -0.64068600
Sr       1.18218697       0.78817596      14.99048104      -0.27773133      -0.43781079      -0.58798815
Ti       1.97047269       1.97057450      12.18059821       0.39728815       0.42167146      -0.18013946
Ti       3.15248573       2.75860075      16.32800533      -0.06100662      -0.02890743       0.37363503
O        0.00000902       1.97050521      12.22972937       0.68568493      -0.40974720       0.02675978
O        1.18247295       2.75866855      16.43982485       0.01364227       0.04052933       0.53005734
O        1.97049401       3.94093312      12.35162494      -0.38120255       0.60461111      -0.02452370
O        3.15285639       0.78819439      16.44698562       0.00040058       0.00853812       0.53138789
O        1.97043419       1.97038596      10.37876738       0.11991497       0.08072724      -0.18198320
O        3.15282654       2.75861683      14.55067411      -0.48935935      -0.26705277       0.15348097
10
Lattice="3.940949890606662 0.0 0.0 0.0 3.940949890606662 0.0 0.0 0.0 26.940967945119528" Properties=species:S:1:pos:R:3:forces:R:3 tau=tau32 tau_p=3 tau_q=2 stage=B constraint=xy_fixed_z_free force_label=raw_dft energy=-15499.243858312082 free_energy=-15499.243858312082 stress="0.0018023433986365236 0.000835523429831501 0.004778092229497947 0.000835523429831501 0.0018574328555484908 0.0040867195452527596 0.004778092229497947 0.0040867195452527596 -0.010118096919497957" pbc="T T T"
Sr       0.00003612       0.00009431      10.73961124      -0.00942078      -0.01254210      -0.76549146
Sr       1.18218697       0.78817596      15.03289827      -0.21856717      -0.37889036      -0.62802974
Ti       1.97047269       1.97057450      12.12227652       0.35587616       0.35562419      -0.10531881
Ti       3.15248573       2.75860075      16.37312302      -0.05570758      -0.03004257       0.37487275
O        0.00000902       1.97050521      12.16506855       0.55833973      -0.32745338       0.21999876
O        1.18247295       2.75866855      16.50100107       0.01170572       0.03345185       0.36721035
O        1.97049401       3.94093312      12.32601982      -0.35062725       0.55787385      -0.11952570
O        3.15285639       0.78819439      16.51509431       0.00009822       0.00909605       0.32789433
O        1.97043419       1.97038596      10.31433531       0.09936877       0.06390811       0.08496210
O        3.15282654       2.75861683      14.58589186      -0.39106608      -0.27102538       0.24342742
10
Lattice="3.940949890606662 0.0 0.0 0.0 3.940949890606662 0.0 0.0 0.0 26.940967945119528" Properties=species:S:1:pos:R:3:forces:R:3 tau=tau32 tau_p=3 tau_q=2 stage=B constraint=xy_fixed_z_free force_label=raw_dft energy=-15499.33389520296 free_energy=-15499.33389520296 stress="0.004468673113175731 0.000616083759798832 0.003915024071210462 0.000616083759798832 0.005765111665837357 0.003788318320312938 0.003915024071210462 0.003788318320312938 -0.004626596222990037" pbc="T T T"
Sr       0.00003612       0.00009431      10.66322805      -0.00935599      -0.01065079      -0.71429102
Sr       1.18218697       0.78817596      15.06975197      -0.16941230      -0.32466811      -0.38042762
Ti       1.97047269       1.97057450      12.04428697       0.31281224       0.29311579       0.04746256
Ti       3.15248573       2.75860075      16.44646283      -0.05076155      -0.03118388       0.35521667
O        0.00000902       1.97050521      12.08520119       0.43072689      -0.24580183       0.30370153
O        1.18247295       2.75866855      16.59393089       0.00926137       0.02664434       0.06987384
O        1.97049401       3.94093312      12.28696568      -0.30724914       0.49348571      -0.31097956
O        3.15285639       0.78819439      16.61595811      -0.00000309       0.00925829      -0.00809280
O        1.97043419       1.97038596      10.22854025       0.07750411       0.04726125       0.28533100
O        3.15282654       2.75861683      14.64099402      -0.29352254      -0.25746101       0.35220539
10
Lattice="3.940949890606662 0.0 0.0 0.0 3.940949890606662 0.0 0.0 0.0 26.940967945119528" Properties=species:S:1:pos:R:3:forces:R:3 tau=tau32 tau_p=3 tau_q=2 stage=B constraint=xy_fixed_z_free force_label=raw_dft energy=-15499.380132650365 free_energy=-15499.380132650365 stress="0.007120312305871748 0.00047836011751891435 0.0035624515469738728 0.00047836011751891435 0.009123732222236952 0.0036303952104986318 0.0035624515469738728 0.0036303952104986318 -0.0014258987764047483" pbc="T T T"
Sr       0.00003612       0.00009431      10.59552242      -0.00761381      -0.00802878      -0.50295791
Sr       1.18218697       0.78817596      15.08131312      -0.15381110      -0.30246638      -0.08879151
Ti       1.97047269       1.97057450      11.99884186       0.29167083       0.26706871       0.13475460
Ti       3.15248573       2.75860075      16.50390465      -0.04884787      -0.03187448       0.26896670
O        0.00000902       1.97050521      12.04194645       0.37126138      -0.20836374       0.25172874
O        1.18247295       2.75866855      16.65581856       0.00801439       0.02344692      -0.09869282
O        1.97049401       3.94093312      12.25365586      -0.27721506       0.44935710      -0.41105563
O        3.15285639       0.78819439      16.68087463       0.00047771       0.00890939      -0.18461678
O        1.97043419       1.97038596      10.17844284       0.06659054       0.04009018       0.27496303
O        3.15282654       2.75861683      14.68499957      -0.25052726      -0.23813892       0.35570184
10
Lattice="3.940949890606662 0.0 0.0 0.0 3.940949890606662 0.0 0.0 0.0 26.940967945119528" Properties=species:S:1:pos:R:3:forces:R:3 tau=tau32 tau_p=3 tau_q=2 stage=B constraint=xy_fixed_z_free force_label=raw_dft energy=-15499.410521371468 free_energy=-15499.410521371468 stress="0.00951211289346632 0.00037001751892537906 0.0034072829100051656 0.00037001751892537906 0.011741399583170588 0.003520216296674698 0.0034072829100051656 0.003520216296674698 0.0004572424923693269" pbc="T T T"
Sr       0.00003612       0.00009431      10.53098119      -0.00519440      -0.00540060      -0.21302721
Sr       1.18218697       0.78817596      15.08576564      -0.15050132      -0.29064419       0.17090046
Ti       1.97047269       1.97057450      11.97079408       0.27792468       0.25480892       0.13007802
Ti       3.15248573       2.75860075      16.55482119      -0.04779167      -0.03168448       0.11815762
O        0.00000902       1.97050521      12.01686422       0.33662734      -0.18725036       0.16718521
O        1.18247295       2.75866855      16.69992679       0.00698646       0.02153067      -0.15391112
O        1.97049401       3.94093312      12.21718284      -0.25089287       0.41051262      -0.41134848
O        3.15285639       0.78819439      16.72480063       0.00144316       0.00818768      -0.23276017
O        1.97043419       1.97038596      10.14689740       0.05959380       0.03671715       0.16121511
O        3.15282654       2.75861683      14.72728597      -0.22819543      -0.21677742       0.26351082
10
Lattice="3.940949890606662 0.0 0.0 0.0 3.940949890606662 0.0 0.0 0.0 26.940967945119528" Properties=species:S:1:pos:R:3:forces:R:3 tau=tau32 tau_p=3 tau_q=2 stage=B constraint=xy_fixed_z_free force_label=raw_dft energy=-15499.426174175813 free_energy=-15499.426174175813 stress="0.010675418591924024 0.00030758280109181635 0.003366883974936389 0.00030758280109181635 0.012619158263301265 0.0034366639536915476 0.003366883974936389 0.0034366639536915476 0.0007877792338411295" pbc="T T T"
Sr       0.00003612       0.00009431      10.49159383      -0.00355558      -0.00364120      -0.00344734
Sr       1.18218697       0.78817596      15.09191231      -0.15216457      -0.28313579       0.27568756
Ti       1.97047269       1.97057450      11.96074739       0.27070425       0.25035988       0.05891092
Ti       3.15248573       2.75860075      16.58418614      -0.04762172      -0.03106895       0.00227800
O        0.00000902       1.97050521      12.00963522       0.32172600      -0.17900843       0.11766525
O        1.18247295       2.75866855      16.71811405       0.00636117       0.02059325      -0.10946600
O        1.97049401       3.94093312      12.18675772      -0.23253160       0.38254981      -0.33141854
O        3.15285639       0.78819439      16.74050877       0.00231348       0.00758630      -0.17569222
O        1.97043419       1.97038596      10.13560092       0.05590452       0.03609109       0.03526705
O        3.15282654       2.75861683      14.75626361      -0.22113595      -0.20032622       0.13021532
10
Lattice="3.940949890606662 0.0 0.0 0.0 3.940949890606662 0.0 0.0 0.0 26.940967945119528" Properties=species:S:1:pos:R:3:forces:R:3 tau=tau32 tau_p=3 tau_q=2 stage=B constraint=xy_fixed_z_free force_label=raw_dft energy=-15499.436455044806 free_energy=-15499.436455044806 stress="0.010964638240711852 0.00026902018125343936 0.003320976094176417 0.00026902018125343936 0.012369419391967014 0.003320976094176417 0.003320976094176417 0.003320976094176417 0.00036359041561898287" pbc="T T T"
Sr       0.00003612       0.00009431      10.46776455      -0.00259990      -0.00250091       0.11900042
Sr       1.18218697       0.78817596      15.10644656      -0.15210621      -0.27170390       0.25348095
Ti       1.97047269       1.97057450      11.95508716       0.26235511       0.24430262      -0.02498727
Ti       3.15248573       2.75860075      16.60200670      -0.04676657      -0.02949904      -0.06968050
O        0.00000902       1.97050521      12.00820861       0.31146652      -0.17417707       0.09879567
O        1.18247295       2.75866855      16.72539658       0.00600687       0.01959566      -0.02146563
O        1.97049401       3.94093312      12.15740656      -0.21620741       0.35642817      -0.21902328
O        3.15285639       0.78819439      16.74424784       0.00311695       0.00699700      -0.07455145
O        1.97043419       1.97038596      10.13025028       0.05273898       0.03606101      -0.06385078
O        3.15282654       2.75861683      14.77850513      -0.21800409      -0.18550381       0.00228185
10
Lattice="3.940949890606662 0.0 0.0 0.0 3.940949890606662 0.0 0.0 0.0 26.940967945119528" Properties=species:S:1:pos:R:3:forces:R:3 tau=tau32 tau_p=3 tau_q=2 stage=B constraint=xy_fixed_z_free force_label=raw_dft energy=-15499.443418982164 free_energy=-15499.443418982164 stress="0.010624919923088054 0.0002451480832582536 0.0032254877021956735 0.0002451480832582536 0.011474215717147547 0.003159380353901313 0.0032254877021956735 0.003159380353901313 -0.00028830149117262783" pbc="T T T"
Sr       0.00003612       0.00009431      10.45509398      -0.00229342      -0.00197204       0.14448906
Sr       1.18218697       0.78817596      15.12937842      -0.14788754      -0.25472485       0.13977674
Ti       1.97047269       1.97057450      11.94652489       0.25059720       0.23377550      -0.08125637
Ti       3.15248573       2.75860075      16.61301818      -0.04465852      -0.02743161      -0.08072390
O        0.00000902       1.97050521      12.00632726       0.30052262      -0.16920944       0.09653515
O        1.18247295       2.75866855      16.73091520       0.00579475       0.01827566       0.06174607
O        1.97049401       3.94093312      12.12953184      -0.20098416       0.33122031      -0.11584131
O        3.15285639       0.78819439      16.74617320       0.00362243       0.00645115       0.02023998
O        1.97043419       1.97038596      10.12286186       0.04918495       0.03551825      -0.10541034
O        3.15282654       2.75861683      14.79549515      -0.21389830      -0.17190319      -0.07955533
10
Lattice="3.940949890606662 0.0 0.0 0.0 3.940949890606662 0.0 0.0 0.0 26.940967945119528" Properties=species:S:1:pos:R:3:forces:R:3 tau=tau32 tau_p=3 tau_q=2 stage=B constraint=xy_fixed_z_free force_label=raw_dft energy=-15499.447971174572 free_energy=-15499.447971174572 stress="0.010152986908875537 0.00022678493095426458 0.003079500641378961 0.00022678493095426458 0.010590948091325676 0.002971158042785426 0.003079500641378961 0.002971158042785426 -0.000617920075029231" pbc="T T T"
Sr       0.00003612       0.00009431      10.44561417      -0.00231888      -0.00180414       0.10689773
Sr       1.18218697       0.78817596      15.15619489      -0.14019454      -0.23454040       0.01096164
Ti       1.97047269       1.97057450      11.93081877       0.23574471       0.21918757      -0.09126773
Ti       3.15248573       2.75860075      16.62385350      -0.04202288      -0.02504666      -0.05320204
O        0.00000902       1.97050521      11.99978833       0.28667903      -0.16233020       0.09133664
O        1.18247295       2.75866855      16.74269785       0.00567802       0.01665638       0.10062038
O        1.97049401       3.94093312      12.10289747      -0.18648134       0.30718898      -0.05096929
O        3.15285639       0.78819439      16.75502704       0.00384843       0.00595262       0.06828233
O        1.97043419       1.97038596      10.10822332       0.04510101       0.03398510      -0.08936975
O        3.15282654       2.75861683      14.81020463      -0.20603381      -0.15924924      -0.09329016
10
Lattice="3.940949890606662 0.0 0.0 0.0 3.940949890606662 0.0 0.0 0.0 26.940967945119528" Properties=species:S:1:pos:R:3:forces:R:3 tau=tau32 tau_p=3 tau_q=2 stage=B constraint=xy_fixed_z_free force_label=raw_dft energy=-15499.450802383006 free_energy=-15499.450802383006 stress="0.009939056184534065 0.00020933993626547502 0.0029234138467950544 0.00020933993626547502 0.010117178761882758 0.0027930354654367323 0.0029234138467950544 0.0027930354654367323 -0.00045356986190852916" pbc="T T T"
Sr       0.00003612       0.00009431      10.43473099      -0.00243741      -0.00177792       0.05370083
Sr       1.18218697       0.78817596      15.18014656      -0.13217193      -0.21592793      -0.06645222
Ti       1.97047269       1.97057450      11.91015209       0.22102360       0.20441144      -0.06466324
Ti       3.15248573       2.75860075      16.63712318      -0.03933171      -0.02299646      -0.01550504
O        0.00000902       1.97050521      11.98960409       0.27210628      -0.15458861       0.07241461
O        1.18247295       2.75866855      16.76147512       0.00551990       0.01512349       0.08623171
O        1.97049401       3.94093312      12.07844173      -0.17372456       0.28628154      -0.02632424
O        3.15285639       0.78819439      16.77161891       0.00385434       0.00556130       0.06103747
O        1.97043419       1.97038596      10.08802874       0.04110397       0.03197912      -0.04270525
O        3.15282654       2.75861683      14.82399856      -0.19594249      -0.14806597      -0.05773464
10
Lattice="3.940949890606662 0.0 0.0 0.0 3.940949890606662 0.0 0.0 0.0 26.940967945119528" Properties=species:S:1:pos:R:3:forces:R:3 tau=tau32 tau_p=3 tau_q=2 stage=B constraint=xy_fixed_z_free force_label=raw_dft energy=-15499.452110706343 free_energy=-15499.452110706343 stress="0.010085043245350778 0.0001955675720374832 0.002823334666738314 0.0001955675720374832 0.010111669816191562 0.0026801020787671995 0.002823334666738314 0.0026801020787671995 -2.570841322558465e-05" pbc="T T T"
Sr       0.00003612       0.00009431      10.42504715      -0.00246980      -0.00174629       0.02204695
Sr       1.18218697       0.78817596      15.19320605      -0.12736525      -0.20464541      -0.07013944
Ti       1.97047269       1.97057450      11.89352543       0.21124646       0.19523132      -0.02884289
Ti       3.15248573       2.75860075      16.64868891      -0.03766152      -0.02186723       0.01014969
O        0.00000902       1.97050521      11.98167258       0.26260862      -0.14939626       0.04485932
O        1.18247295       2.75866855      16.77887154       0.00540060       0.01409942       0.04393398
O        1.97049401       3.94093312      12.06154243      -0.16560295       0.27319385      -0.02672533
O        3.15285639       0.78819439      16.78750099       0.00385357       0.00529981       0.02436454
O        1.97043419       1.97038596      10.07142911       0.03850433       0.03050614      -0.00444492
O        3.15282654       2.75861683      14.83383577      -0.18851354      -0.14067508      -0.01520216
10
Lattice="3.940949890606662 0.0 0.0 0.0 3.940949890606662 0.0 0.0 0.0 26.940967945119528" Properties=species:S:1:pos:R:3:forces:R:3 tau=tau32 tau_p=3 tau_q=2 stage=B constraint=xy_fixed_z_free force_label=raw_dft energy=-15499.45252731263 free_energy=-15499.45252731263 stress="0.010323764225302635 0.00018914046873108706 0.0027930354654367323 0.00018914046873108706 0.010235621094243487 0.002638784986083224 0.0027930354654367323 0.002638784986083224 0.0002543296594102481" pbc="T T T"
Sr       0.00003612       0.00009431      10.42022073      -0.00247392      -0.00175966       0.01587425
Sr       1.18218697       0.78817596      15.19582082      -0.12632755      -0.20087618      -0.04245894
Ti       1.97047269       1.97057450      11.88635235       0.20778576       0.19243422      -0.00794625
Ti       3.15248573       2.75860075      16.65461938      -0.03732728      -0.02152759       0.01433981
O        0.00000902       1.97050521      11.97956815       0.25992542      -0.14794205       0.02313864
O        1.18247295       2.75866855      16.78760448       0.00536641       0.01370501       0.01421357
O        1.97049401       3.94093312      12.05359966      -0.16232300       0.26805242      -0.02695185
O        3.15285639       0.78819439      16.79510347       0.00389754       0.00518000      -0.00058390
O        1.97043419       1.97038596      10.06430769       0.03749620       0.03003537       0.00701963
O        3.15282654       2.75861683      14.83812324      -0.18601983      -0.13730102       0.00335529
10
Lattice="3.940949890606662 0.0 0.0 0.0 3.940949890606662 0.0 0.0 0.0 26.940967945119528" Properties=species:S:1:pos:R:3:forces:R:3 tau=tau32 tau_p=3 tau_q=2 stage=B constraint=xy_fixed_z_free force_label=raw_dft energy=-15499.452706363534 free_energy=-15499.452706363534 stress="0.010490868911268934 0.00018730415350068813 0.002803135199203926 0.00018730415350068813 0.010291628708770654 0.0026332760403920273 0.002803135199203926 0.0026332760403920273 0.0003452272633149938" pbc="T T T"
Sr       0.00003612       0.00009431      10.41997576      -0.00252071      -0.00180389       0.01488129
Sr       1.18218697       0.78817596      15.19373098      -0.12715314      -0.20076536      -0.01719194
Ti       1.97047269       1.97057450      11.88535468       0.20761529       0.19283788       0.00098756
Ti       3.15248573       2.75860075      16.65590972      -0.03759030      -0.02150265       0.00900118
O        0.00000902       1.97050521      11.98145661       0.26126239      -0.14876763       0.00941641
O        1.18247295       2.75866855      16.78971650       0.00539546       0.01364742       0.00088652
O        1.97049401       3.94093312      12.05093154      -0.16168536       0.26716333      -0.02086065
O        3.15285639       0.78819439      16.79619777       0.00397133       0.00513552      -0.00945626
O        1.97043419       1.97038596      10.06352765       0.03736867       0.03017344       0.00564769
O        3.15282654       2.75861683      14.83851875      -0.18666363      -0.13611780       0.00668847
