10
Lattice="3.940949890606662 0.0 0.0 0.0 3.940949890606662 0.0 0.0 0.0 26.940967945119528" Properties=species:S:1:pos:R:3:forces:R:3 tau=tau54 tau_p=5 tau_q=4 stage=A constraint=rigid_scf force_label=raw_dft energy=-15496.40709576223 free_energy=-15496.40709576223 stress="0.01890394713934151 -0.0 -0.0 -0.0 0.01500544990520464 0.004942442442618648 -0.0 0.004942442442618648 -0.02623635385432433" pbc="T T T"
Sr       0.00003626       0.00009419      10.75260867      -0.00010233      -0.00486453       0.70519858
Sr       1.97037682       1.57636577      14.64522241      -0.00066772      -1.21561783       6.61435649
Ti       1.97047258       1.97057465      12.38212169       0.00025043       1.11026765      -7.38957006
Ti       3.94067560       3.54679066      16.28444791       0.00068931       0.04368356      -1.07034896
O        0.00000906       1.97050529      12.45001441      -0.00000180      -0.54170727      -0.35777903
O        1.97066293       3.54685845      16.39256827      -0.00074485       0.06289613      -0.12470390
O        1.97049386       3.94093294      12.44909065      -0.00001414       0.33577656      -0.22474141
O        0.00009655       1.57638429      16.37955485       0.00059907      -0.00148173      -0.06972857
O        1.97043435       1.97038588      10.49176941       0.00016712       0.04109497       0.44027288
O        0.00006660       3.54680682      14.44792112      -0.00017509       0.16995223       1.47704400
