Sr Ti O
 1.0000000000000000
     3.9409498906066620    0.0000000000000000    0.0000000000000000
     0.0000000000000000    3.9409498906066620    0.0000000000000000
     0.0000000000000000    0.0000000000000000   26.9409679451195281
 Sr  Ti  O
   2   2   6
Cartesian
  0.0000361212000000  0.0000943054000000 10.6657283557000007
  0.3939969858000000  3.1527459097000001 14.8894783080999993
  1.9704726885999999  1.9705745045000000 12.2108246678000008
  2.3642957472999999  1.1822207882000000 16.3840888673999991
  0.0000090208000000  1.9705052130000000 12.3434462137000001
  0.3942829697000000  1.1822885835000001 16.5184626240000014
  1.9704940097000001  3.9409331233999998 12.2318770512999997
  2.3646664111000000  3.1527643393000000 16.5096653145000012
  1.9704341934000000  1.9703859550000000 10.3634082113999995
  2.3646365589000000  1.1822368594999999 14.5583403490999999
