10
Lattice="3.940949890606662 0.0 0.0 0.0 3.940949890606662 0.0 0.0 0.0 26.940967945119528" Properties=species:S:1:pos:R:3:forces:R:3 tau=tau18 tau_p=1 tau_q=8 stage=B constraint=xy_fixed_z_free force_label=raw_dft energy=-15499.601658621621 free_energy=-15499.601658621621 stress="0.008864811774750707 -0.000892449201973867 0.0055722985666454726 -0.000892449201973867 0.010958211137405456 -0.013116799690739367 0.0055722985666454726 -0.013116799690739367 -0.006723668216105585" pbc="T T T"
Sr       0.00003626       0.00009419      10.75260867      -0.00210882      -0.00040701       0.19486519
Sr       0.39399686       3.15274573      14.64522241      -0.45223211       0.70790106       1.63980280
Ti       1.97047258       1.97057465      12.38212169       0.55378117      -0.59838544      -0.63513524
Ti       2.36429564       1.18222073      16.28444791      -0.03958650       0.12187080      -0.01624603
O        0.00000906       1.97050529      12.45001441       0.67244118       0.27626015      -0.41054758
O        0.39428297       1.18228851      16.39256827      -0.00665119       0.03950423      -0.04892244
O        1.97049386       3.94093294      12.44909065      -0.40847193      -1.64462285      -1.02300981
O        2.36466649       3.15276425      16.37955485       0.00673372       0.00456576      -0.04507118
O        1.97043435       1.97038588      10.49176941       0.12800854      -0.27045563       0.17309129
O        2.36463654       1.18223689      14.44792112      -0.45191406       1.36376891       0.17117325
10
Lattice="3.940949890606662 0.0 0.0 0.0 3.940949890606662 0.0 0.0 0.0 26.940967945119528" Properties=species:S:1:pos:R:3:forces:R:3 tau=tau18 tau_p=1 tau_q=8 stage=B constraint=xy_fixed_z_free force_label=raw_dft energy=-15499.682404729705 free_energy=-15499.682404729705 stress="0.008047651497223194 -0.0008419505331378973 0.005312459961544027 -0.0008419505331378973 0.009970273543450847 -0.012269340211910274 0.005312459961544027 -0.012269340211910274 -0.007064304691344582" pbc="T T T"
Sr       0.00003612       0.00009431      10.75661938      -0.00177817      -0.00077390       0.17592773
Sr       0.39399699       3.15274591      14.67897266      -0.41043034       0.61298570       1.26697510
Ti       1.97047269       1.97057450      12.36904979       0.50411054      -0.55777049      -0.46614049
Ti       2.36429575       1.18222079      16.28411354      -0.03910596       0.11739554      -0.04947857
O        0.00000902       1.97050521      12.44156469       0.66164332       0.31317528      -0.28958669
O        0.39428297       1.18228858      16.39156142      -0.00550370       0.03736867       0.01521399
O        1.97049401       3.94093312      12.42803534      -0.39966667      -1.54343528      -0.86044641
O        2.36466641       3.15276434      16.37862716       0.00727596       0.00214276       0.02119489
O        1.97043419       1.97038596      10.49533190       0.12545569      -0.26480511      -0.02974252
O        2.36463656       1.18223686      14.45144409      -0.44200066       1.28371684       0.21608322
10
Lattice="3.940949890606662 0.0 0.0 0.0 3.940949890606662 0.0 0.0 0.0 26.940967945119528" Properties=species:S:1:pos:R:3:forces:R:3 tau=tau18 tau_p=1 tau_q=8 stage=B constraint=xy_fixed_z_free force_label=raw_dft energy=-15499.751179733683 free_energy=-15499.751179733683 stress="0.0070514504847317885 -0.0007914518643019274 0.005048030568366585 -0.0007914518643019274 0.008762896279463566 -0.011373218379475608 0.005048030568366585 -0.011373218379475608 -0.0075114474499467145" pbc="T T T"
Sr       0.00003612       0.00009431      10.76172994      -0.00182677      -0.00044480       0.11520291
Sr       0.39399699       3.15274591      14.71609761      -0.37043760       0.52304851       0.89019253
Ti       1.97047269       1.97057450      12.35534781       0.45691280      -0.52272173      -0.35654259
Ti       2.36429575       1.18222079      16.28272846      -0.03832564       0.11114236       0.00430763
O        0.00000902       1.97050521      12.43303079       0.64643576       0.34305381      -0.16569063
O        0.39428297       1.18228858      16.39191429      -0.00406311       0.03523980       0.07492889
O        1.97049401       3.94093312      12.40294527      -0.38422180      -1.42825038      -0.66151013
O        2.36466641       3.15276434      16.37915001       0.00792620      -0.00054559       0.08280598
O        1.97043419       1.97038596      10.49474698       0.12107505      -0.25623871      -0.16518541
O        2.36463656       1.18223686      14.45762881      -0.43347488       1.19571646       0.18149083
10
Lattice="3.940949890606662 0.0 0.0 0.0 3.940949890606662 0.0 0.0 0.0 26.940967945119528" Properties=species:S:1:pos:R:3:forces:R:3 tau=tau18 tau_p=1 tau_q=8 stage=B constraint=xy_fixed_z_free force_label=raw_dft energy=-15499.817922999688 free_energy=-15499.817922999688 stress="0.005461201495206338 -0.0007326897769291624 0.004689949098438799 -0.0007326897769291624 0.006843028706081514 -0.010115342446652359 0.004689949098438799 -0.010115342446652359 -0.008073359910448778" pbc="T T T"
Sr       0.00003612       0.00009431      10.76899870      -0.00216950       0.00042860      -0.01824249
Sr       0.39399699       3.15274591      14.77178504      -0.31916646       0.40905171       0.35793921
Ti       1.97047269       1.97057450      12.33354100       0.39518627      -0.47868207      -0.23644713
Ti       2.36429575       1.18222079      16.28234573      -0.03706811       0.10137346       0.09422373
O        0.00000902       1.97050521      12.42175074       0.62172411       0.37331981      -0.01670420
O        0.39428297       1.18228858      16.39501846      -0.00186148       0.03212851       0.16712813
O        1.97049401       3.94093312      12.36307037      -0.35498347      -1.26120735      -0.36239416
O        2.36466641       3.15276434      16.38265650       0.00876103      -0.00409371       0.17740098
O        1.97043419       1.97038596      10.48816887       0.11269711      -0.24113605      -0.28954093
O        2.36463656       1.18223686      14.46798455      -0.42311976       1.06881735       0.12663686
10
Lattice="3.940949890606662 0.0 0.0 0.0 3.940949890606662 0.0 0.0 0.0 26.940967945119528" Properties=species:S:1:pos:R:3:forces:R:3 tau=tau18 tau_p=1 tau_q=8 stage=B constraint=xy_fixed_z_free force_label=raw_dft energy=-15499.84741741866 free_energy=-15499.84741741866 stress="0.0039186967016712594 -0.0006904545266299876 0.004374102878810187 -0.0006904545266299876 0.004955296649231441 -0.008953873063425053 0.004374102878810187 -0.008953873063425053 -0.008299226683787844" pbc="T T T"
Sr       0.00003612       0.00009431      10.77351633      -0.00279248       0.00167250      -0.18303503
Sr       0.39399699       3.15274591      14.82656818      -0.27660931       0.31566282      -0.12110770
Ti       1.97047269       1.97057450      12.30838901       0.34318365      -0.44346439      -0.13991121
Ti       2.36429575       1.18222079      16.28563918      -0.03595251       0.09226789       0.17649852
O        0.00000902       1.97050521      12.41244330       0.59583645       0.38978027       0.07324482
O        0.39428297       1.18228858      16.40319544       0.00025223       0.02908355       0.25003335
O        1.97049401       3.94093312      12.32037044      -0.32045433      -1.10276929      -0.07733030
O        2.36466641       3.15276434      16.39149299       0.00931485      -0.00696075       0.26127088
O        1.97043419       1.97038596      10.47371239       0.10222629      -0.22324246      -0.32365252
O        2.36463656       1.18223686      14.47999270      -0.41500485       0.94797011       0.08398946
10
Lattice="3.940949890606662 0.0 0.0 0.0 3.940949890606662 0.0 0.0 0.0 26.940967945119528" Properties=species:S:1:pos:R:3:forces:R:3 tau=tau18 tau_p=1 tau_q=8 stage=B constraint=xy_fixed_z_free force_label=raw_dft energy=-15499.856411053142 free_energy=-15499.856411053142 stress="0.0038746251361416865 -0.0006803547928627937 0.004298813954363833 -0.0006803547928627937 0.004787273805649941 -0.008637108686181241 0.004298813954363833 -0.008637108686181241 -0.007746495799437774" pbc="T T T"
Sr       0.00003612       0.00009431      10.77052251      -0.00294571       0.00203503      -0.22729452
Sr       0.39399699       3.15274591      14.84014348      -0.26553942       0.29281343      -0.20303796
Ti       1.97047269       1.97057450      12.29766002       0.33056956      -0.43806584      -0.11397315
Ti       2.36429575       1.18222079      16.29065822      -0.03625564       0.09048226       0.18763731
O        0.00000902       1.97050521      12.41108376       0.58879162       0.39149031       0.05608373
O        0.39428297       1.18228858      16.41109490       0.00095902       0.02817003       0.24646852
O        1.97049401       3.94093312      12.30618557      -0.30812692      -1.05536174      -0.01488746
O        2.36466641       3.15276434      16.39982846       0.00946989      -0.00751482       0.25620452
O        1.97043419       1.97038596      10.46288218       0.09764150      -0.21546179      -0.26716847
O        2.36463656       1.18223686      14.48526085      -0.41456365       0.91141313       0.07996799
10
Lattice="3.940949890606662 0.0 0.0 0.0 3.940949890606662 0.0 0.0 0.0 26.940967945119528" Properties=species:S:1:pos:R:3:forces:R:3 tau=tau18 tau_p=1 tau_q=8 stage=B constraint=xy_fixed_z_free force_label=raw_dft energy=-15499.868923119555 free_energy=-15499.868923119555 stress="0.004248315285527863 -0.0006684187438652008 0.004233624763684671 -0.0006684187438652008 0.005008549790913009 -0.008334116673165423 0.004233624763684671 -0.008334116673165423 -0.006693369014804003" pbc="T T T"
Sr       0.00003612       0.00009431      10.76289611      -0.00303622       0.00225383      -0.25422708
Sr       0.39399699       3.15274591      14.85111351      -0.25530103       0.27244772      -0.23095346
Ti       1.97047269       1.97057450      12.28403085       0.32002598      -0.43608378      -0.07559352
Ti       2.36429575       1.18222079      16.29951938      -0.03719281       0.08983614       0.18604554
O        0.00000902       1.97050521      12.41022010       0.58141461       0.39125171       0.00579270
O        0.39428297       1.18228858      16.42386227       0.00171570       0.02714571       0.21704250
O        1.97049401       3.94093312      12.29085153      -0.29445148      -1.00653572       0.02556036
O        2.36466641       3.15276434      16.41322182       0.00957376      -0.00787195       0.22389166
O        1.97043419       1.97038596      10.44727882       0.09198893      -0.20585255      -0.17874978
O        2.36463656       1.18223686      14.49232556      -0.41473719       0.87340889       0.08119081
10
Lattice="3.940949890606662 0.0 0.0 0.0 3.940949890606662 0.0 0.0 0.0 26.940967945119528" Properties=species:S:1:pos:R:3:forces:R:3 tau=tau18 tau_p=1 tau_q=8 stage=B constraint=xy_fixed_z_free force_label=raw_dft energy=-15499.885304644758 free_energy=-15499.885304644758 stress="0.005178408949724908 -0.0006491374339460123 0.004162008469699115 -0.0006491374339460123 0.005723794573153382 -0.007984298621774431 0.004162008469699115 -0.007984298621774431 -0.004913979556547466" pbc="T T T"
Sr       0.00003612       0.00009431      10.74753999      -0.00295163       0.00237904      -0.25887435
Sr       0.39399699       3.15274591      14.86137454      -0.24432911       0.25094121      -0.20281402
Ti       1.97047269       1.97057450      12.26469057       0.30943998      -0.43677129      -0.01999264
Ti       2.36429575       1.18222079      16.31501374      -0.03891776       0.08998218       0.16667176
O        0.00000902       1.97050521      12.40851670       0.57063346       0.38860887      -0.08136050
O        0.39428297       1.18228858      16.44479515       0.00257367       0.02577094       0.15513265
O        1.97049401       3.94093312      12.27105835      -0.27685793      -0.94625749       0.05081785
O        2.36466641       3.15276434      16.43509324       0.00958584      -0.00802544       0.15726204
O        1.97043419       1.97038596      10.42387378       0.08448542      -0.19269904      -0.05472876
O        2.36463656       1.18223686      14.50336391      -0.41366222       0.82607076       0.08788622
10
Lattice="3.940949890606662 0.0 0.0 0.0 3.940949890606662 0.0 0.0 0.0 26.940967945119528" Properties=species:S:1:pos:R:3:forces:R:3 tau=tau18 tau_p=1 tau_q=8 stage=B constraint=xy_fixed_z_free force_label=raw_dft energy=-15499.901283033307 free_energy=-15499.901283033307 stress="0.006932089994755861 -0.0006114929717228348 0.004072029023409568 -0.0006114929717228348 0.007162547556170922 -0.007550928227400291 0.004072029023409568 -0.007550928227400291 -0.0021494069771819165" pbc="T T T"
Sr       0.00003612       0.00009431      10.71860178      -0.00261687       0.00228391      -0.21565591
Sr       0.39399699       3.15274591      14.87115071      -0.23233954       0.22724927      -0.09601528
Ti       1.97047269       1.97057450      12.23694185       0.29822945      -0.43890994       0.04729056
Ti       2.36429575       1.18222079      16.34166104      -0.04175523       0.09076406       0.11957944
O        0.00000902       1.97050521      12.40306730       0.55169780       0.38160570      -0.20364423
O        0.39428297       1.18228858      16.47853590       0.00348719       0.02368217       0.05054866
O        1.97049401       3.94093312      12.24402766      -0.25359716      -0.86787099       0.05801746
O        2.36466641       3.15276434      16.47020080       0.00949868      -0.00794677       0.04560803
O        1.97043419       1.97038596      10.38941581       0.07473014      -0.17471777       0.09943150
O        2.36463656       1.18223686      14.52171712      -0.40733447       0.76386035       0.09483977
10
Lattice="3.940949890606662 0.0 0.0 0.0 3.940949890606662 0.0 0.0 0.0 26.940967945119528" Properties=species:S:1:pos:R:3:forces:R:3 tau=tau18 tau_p=1 tau_q=8 stage=B constraint=xy_fixed_z_free force_label=raw_dft energy=-15499.906809257198 free_energy=-15499.906809257198 stress="0.008059587546220787 -0.000579357455190854 0.004027957457879995 -0.000579357455190854 0.008164257514353524 -0.007362705916284403 0.004027957457879995 -0.007362705916284403 -0.0006702550590955998" pbc="T T T"
Sr       0.00003612       0.00009431      10.69771587      -0.00219752       0.00188076      -0.14810120
Sr       0.39399699       3.15274591      14.87368265      -0.22824480       0.21886747      -0.00720809
Ti       1.97047269       1.97057450      12.22329596       0.29512408      -0.44129772       0.06684431
Ti       2.36429575       1.18222079      16.35910601      -0.04329146       0.09131556       0.07754447
O        0.00000902       1.97050521      12.39527563       0.53675609       0.37520443      -0.23998368
O        0.39428297       1.18228858      16.49816925       0.00375227       0.02229635      -0.00478585
O        1.97049401       3.94093312      12.23103847      -0.24266637      -0.82987831       0.05080166
O        2.36466641       3.15276434      16.49045520       0.00940895      -0.00766034      -0.01270022
O        1.97043419       1.97038596      10.37257042       0.07053564      -0.16573151       0.13543492
O        2.36463656       1.18223686      14.53401051      -0.39917714       0.73500332       0.08215369
10
Lattice="3.940949890606662 0.0 0.0 0.0 3.940949890606662 0.0 0.0 0.0 26.940967945119528" Properties=species:S:1:pos:R:3:forces:R:3 tau=tau18 tau_p=1 tau_q=8 stage=B constraint=xy_fixed_z_free force_label=raw_dft energy=-15499.910506740038 free_energy=-15499.910506740038 stress="0.008771159698000363 -0.0005472219386588731 0.003999494571808812 -0.0005472219386588731 0.008886847557515494 -0.007277317258070854 0.003999494571808812 -0.007277317258070854 0.00013405101181911995" pbc="T T T"
Sr       0.00003612       0.00009431      10.68076479      -0.00177123       0.00126987      -0.06846591
Sr       0.39399699       3.15274591      14.87438597      -0.22721224       0.21625214       0.05549829
Ti       1.97047269       1.97057450      12.21687319       0.29557788      -0.44408428       0.05030235
Ti       2.36429575       1.18222079      16.37210621      -0.04370515       0.09199279       0.03293686
O        0.00000902       1.97050521      12.38418415       0.52182441       0.36877564      -0.21509798
O        0.39428297       1.18228858      16.51042336       0.00374096       0.02103394      -0.02756017
O        1.97049401       3.94093312      12.22475900      -0.23724032      -0.80868111       0.04753121
O        2.36466641       3.15276434      16.50288432       0.00928682      -0.00736441      -0.03598567
O        1.97043419       1.97038596      10.36509795       0.06887111      -0.16059393       0.10484033
O        2.36463656       1.18223686      14.54384103      -0.38937223       0.72139935       0.05600068
10
Lattice="3.940949890606662 0.0 0.0 0.0 3.940949890606662 0.0 0.0 0.0 26.940967945119528" Properties=species:S:1:pos:R:3:forces:R:3 tau=tau18 tau_p=1 tau_q=8 stage=B constraint=xy_fixed_z_free force_label=raw_dft energy=-15499.913447474293 free_energy=-15499.913447474293 stress="0.009119141434160954 -0.0005132501068964935 0.003967359055276831 -0.0005132501068964935 0.009371634778340803 -0.00723416385015648 0.003967359055276831 -0.00723416385015648 0.00045999696521492535" pbc="T T T"
Sr       0.00003612       0.00009431      10.66636156      -0.00129352       0.00055099       0.01760846
Sr       0.39399699       3.15274591      14.87597640      -0.22700835       0.21557286       0.08510454
Ti       1.97047269       1.97057450      12.21470037       0.29772835      -0.44589871       0.00589297
Ti       2.36429575       1.18222079      16.38230421      -0.04353958       0.09239928      -0.01070325
O        0.00000902       1.97050521      12.36872717       0.50458851       0.36167554      -0.13688090
O        0.39428297       1.18228858      16.51791677       0.00359569       0.01967742      -0.02517856
O        1.97049401       3.94093312      12.22274133      -0.23494278      -0.79603154       0.05222708
O        2.36466641       3.15276434      16.51018312       0.00908474      -0.00711938      -0.03202618
O        1.97043419       1.97038596      10.36370713       0.06878935      -0.15727952       0.02614092
O        2.36463656       1.18223686      14.55270190      -0.37700214       0.71645307       0.01781466
10
Lattice="3.940949890606662 0.0 0.0 0.0 3.940949890606662 0.0 0.0 0.0 26.940967945119528" Properties=species:S:1:pos:R:3:forces:R:3 tau=tau18 tau_p=1 tau_q=8 stage=B constraint=xy_fixed_z_free force_label=raw_dft energy=-15499.914661646242 free_energy=-15499.914661646242 stress="0.008970399900498643 -0.0004985595850533022 0.003938896169205648 -0.0004985595850533022 0.009371634778340803 -0.007223145958774087 0.003938896169205648 -0.007223145958774087 0.00028371070309663056" pbc="T T T"
Sr       0.00003612       0.00009431      10.66275698      -0.00111843       0.00026200       0.04812128
Sr       0.39399699       3.15274591      14.87885152      -0.22632084       0.21485501       0.06352425
Ti       1.97047269       1.97057450      12.21566298       0.29861538      -0.44437327      -0.02733983
Ti       2.36429575       1.18222079      16.38445593      -0.04285463       0.09227535      -0.02252852
O        0.00000902       1.97050521      12.35858822       0.49457380       0.35776283      -0.06700860
O        0.39428297       1.18228858      16.51807657       0.00348513       0.01892435      -0.00706873
O        1.97049401       3.94093312      12.22481001      -0.23575370      -0.79522138       0.05806039
O        2.36466641       3.15276434      16.50997796       0.00887879      -0.00716618      -0.01152086
O        1.97043419       1.97038596      10.36629527       0.06955528      -0.15639506      -0.03078665
O        2.36463656       1.18223686      14.55584453      -0.36906078       0.71907636      -0.00345273
10
Lattice="3.940949890606662 0.0 0.0 0.0 3.940949890606662 0.0 0.0 0.0 26.940967945119528" Properties=species:S:1:pos:R:3:forces:R:3 tau=tau18 tau_p=1 tau_q=8 stage=B constraint=xy_fixed_z_free force_label=raw_dft energy=-15499.915254990467 free_energy=-15499.915254990467 stress="0.008694034458323608 -0.000493968796977305 0.003906760652673666 -0.000493968796977305 0.009206366407604902 -0.0072011101760093 0.003906760652673666 -0.0072011101760093 4.774419599037149e-05" pbc="T T T"
Sr       0.00003612       0.00009431      10.66353060      -0.00112434       0.00024271       0.04603946
Sr       0.39399699       3.15274591      14.88260762      -0.22446322       0.21260992       0.02629082
Ti       1.97047269       1.97057450      12.21579563       0.29761033      -0.44034024      -0.04016706
Ti       2.36429575       1.18222079      16.38390397      -0.04215452       0.09194265      -0.01652628
O        0.00000902       1.97050521      12.35211483       0.48817716       0.35521307      -0.02206058
O        0.39428297       1.18228858      16.51689226       0.00344039       0.01845101       0.00774776
O        1.97049401       3.94093312      12.22753214      -0.23687059      -0.79691420       0.05614055
O        2.36466641       3.15276434      16.50846729       0.00867542      -0.00736775       0.00556027
O        1.97043419       1.97038596      10.36771789       0.07002811      -0.15560239      -0.05249498
O        2.36463656       1.18223686      14.55675773      -0.36331899       0.72176522      -0.01052970
10
Lattice="3.940949890606662 0.0 0.0 0.0 3.940949890606662 0.0 0.0 0.0 26.940967945119528" Properties=species:S:1:pos:R:3:forces:R:3 tau=tau18 tau_p=1 tau_q=8 stage=B constraint=xy_fixed_z_free force_label=raw_dft energy=-15499.915633228702 free_energy=-15499.915633228702 stress="0.008476431103521339 -0.0004930506393621056 0.0038691161904504893 -0.0004930506393621056 0.009068642765324986 -0.007164383871401322 0.0038691161904504893 -0.007164383871401322 -5.876208737276491e-05" pbc="T T T"
Sr       0.00003612       0.00009431      10.66502730      -0.00120996       0.00033759       0.03026060
Sr       0.39399699       3.15274591      14.88642610      -0.22172757       0.20928703      -0.00615676
Ti       1.97047269       1.97057450      12.21410017       0.29541410      -0.43505842      -0.03635926
Ti       2.36429575       1.18222079      16.38343871      -0.04161588       0.09171485      -0.00479125
O        0.00000902       1.97050521      12.34736192       0.48303238       0.35282760       0.00109015
O        0.39428297       1.18228858      16.51683209       0.00344271       0.01803989       0.01393564
O        1.97049401       3.94093312      12.22994327      -0.23749743      -0.79804960       0.04382831
O        2.36466641       3.15276434      16.50817054       0.00846896      -0.00761844       0.01358442
O        1.97043419       1.97038596      10.36666451       0.06995046      -0.15410035      -0.04654725
O        2.36463656       1.18223686      14.55735538      -0.35825803       0.72261960      -0.00884459
10
Lattice="3.940949890606662 0.0 0.0 0.0 3.940949890606662 0.0 0.0 0.0 26.940967945119528" Properties=species:S:1:pos:R:3:forces:R:3 tau=tau18 tau_p=1 tau_q=8 stage=B constraint=xy_fixed_z_free force_label=raw_dft energy=-15499.915891328677 free_energy=-15499.915891328677 stress="0.008384615342001392 -0.0004921324817469061 0.003831471728227312 -0.0004921324817469061 0.009034670933562606 -0.007121230463486947 0.003831471728227312 -0.007121230463486947 4.590788075997259e-06" pbc="T T T"
Sr       0.00003612       0.00009431      10.66572836      -0.00131589       0.00046923       0.01255290
Sr       0.39399699       3.15274591      14.88947831      -0.21870935       0.20580909      -0.02294452
Ti       1.97047269       1.97057450      12.21082467       0.29285842      -0.42972570      -0.02060174
Ti       2.36429575       1.18222079      16.38408887      -0.04130246       0.09168734       0.00509490
O        0.00000902       1.97050521      12.34344621       0.47836146       0.35024724       0.00721683
O        0.39428297       1.18228858      16.51846262       0.00346790       0.01764779       0.01084697
O        1.97049401       3.94093312      12.23187705      -0.23758176      -0.79811516       0.02200170
O        2.36466641       3.15276434      16.50966531       0.00827587      -0.00783441       0.01178697
O        1.97043419       1.97038596      10.36340821       0.06941850      -0.15192314      -0.02308388
O        2.36463656       1.18223686      14.55834035      -0.35347269       0.72173771      -0.00287038
