10
Lattice="3.940949890606662 0.0 0.0 0.0 3.940949890606662 0.0 0.0 0.0 26.940967945119528" Properties=species:S:1:pos:R:3:forces:R:3 tau=tau89 tau_p=8 tau_q=9 stage=B constraint=xy_fixed_z_free force_label=raw_dft energy=-15499.600660780174 free_energy=-15499.600660780174 stress="0.011260284992806076 0.000892449201973867 -0.013130572054967359 0.000892449201973867 0.008561819761734887 -0.005569544093799874 -0.013130572054967359 -0.005569544093799874 -0.0067199955856447864" pbc="T T T"
Sr       0.00003626       0.00009419      10.75260867      -0.00051371       0.00203991       0.19520124
Sr       3.15266178       3.54684071      14.64522241       0.70654275       0.45172946       1.63921582
Ti       1.97047258       1.97057465      12.38212169      -0.59854227      -0.55458464      -0.63533939
Ti       1.18201068       1.57631572      16.28444791       0.12340318       0.03795540      -0.01565596
O        0.00000906       1.97050529      12.45001441      -1.64872144       0.40854366      -1.02797821
O        3.15294790       1.57638350      16.39256827       0.00222400      -0.00597936      -0.08297644
O        1.97049386       3.94093294      12.44909065       0.27742512      -0.67092397      -0.40668296
O        1.18238152       3.54685924      16.37955485       0.04044191       0.00838642      -0.01157562
O        1.97043435       1.97038588      10.49176941      -0.27083486      -0.12739559       0.17349316
O        1.18235157       1.57633188      14.44792112       1.36857533       0.45022845       0.17229836
10
Lattice="3.940949890606662 0.0 0.0 0.0 3.940949890606662 0.0 0.0 0.0 26.940967945119528" Properties=species:S:1:pos:R:3:forces:R:3 tau=tau89 tau_p=8 tau_q=9 stage=B constraint=xy_fixed_z_free force_label=raw_dft energy=-15499.681551652819 free_energy=-15499.681551652819 stress="0.010253066088932278 0.0008419505331378973 -0.012282194418523065 0.0008419505331378973 0.007788731049736949 -0.0053097054886984294 -0.012282194418523065 -0.0053097054886984294 -0.00705053232711659" pbc="T T T"
Sr       0.00003612       0.00009431      10.75662629      -0.00082481       0.00172033       0.17607429
Sr       3.15266193       3.54684090      14.67896058       0.61198863       0.40990738       1.26673471
Ti       1.97047269       1.97057450      12.36904558      -0.55812556      -0.50487750      -0.46682055
Ti       1.18201077       1.57631578      16.28412569       0.11885259       0.03776128      -0.04901988
O        0.00000902       1.97050521      12.42885690      -1.54696567       0.39973095      -0.86449564
O        3.15294791       1.57638358      16.39086054      -0.00002160      -0.00658999      -0.01713332
O        1.97049401       3.94093312      12.44072040       0.31404842      -0.66020144      -0.28603548
O        1.18238144       3.54685933      16.37931656       0.03818191       0.00696229       0.05367512
O        1.97043419       1.97038596      10.49534018      -0.26514296      -0.12488876      -0.02955457
O        1.18235158       1.57633185      14.45146724       1.28800956       0.44047574       0.21657508
10
Lattice="3.940949890606662 0.0 0.0 0.0 3.940949890606662 0.0 0.0 0.0 26.940967945119528" Properties=species:S:1:pos:R:3:forces:R:3 tau=tau89 tau_p=8 tau_q=9 stage=B constraint=xy_fixed_z_free force_label=raw_dft energy=-15499.750508973071 free_energy=-15499.750508973071 stress="0.008999780944185026 0.0007914518643019274 -0.011385154428473201 0.0007914518643019274 0.006814565820010331 -0.005045276095520987 -0.011385154428473201 -0.005045276095520987 -0.007514201922792313" pbc="T T T"
Sr       0.00003612       0.00009431      10.76174043      -0.00050959       0.00172932       0.11579477
Sr       3.15266193       3.54684090      14.71607224       0.52238671       0.36991207       0.89001950
Ti       1.97047269       1.97057450      12.35532665      -0.52305829      -0.45751110      -0.35619909
Ti       1.18201077       1.57631578      16.28275444       0.11243871       0.03734142       0.00428474
O        0.00000902       1.97050521      12.40365289      -1.43107216       0.38424905      -0.66492636
O        3.15294791       1.57638358      16.39027600      -0.00247212      -0.00731967       0.04492334
O        1.97049401       3.94093312      12.43229077       0.34371330      -0.64513144      -0.16278863
O        1.18238144       3.54685933      16.38077903       0.03592577       0.00520468       0.11306478
O        1.97043419       1.97038596      10.49476188      -0.25652899      -0.12054000      -0.16527951
O        1.18235158       1.57633185      14.45766564       1.19917717       0.43206566       0.18110645
10
Lattice="3.940949890606662 0.0 0.0 0.0 3.940949890606662 0.0 0.0 0.0 26.940967945119528" Properties=species:S:1:pos:R:3:forces:R:3 tau=tau89 tau_p=8 tau_q=9 stage=B constraint=xy_fixed_z_free force_label=raw_dft energy=-15499.817539863405 free_energy=-15499.817539863405 stress="0.007022987598660605 0.0007326897769291624 -0.010124524022804353 0.0007326897769291624 0.005287669705933642 -0.004687194625593201 -0.010124524022804353 -0.004687194625593201 -0.00807060543760318" pbc="T T T"
Sr       0.00003612       0.00009431      10.76903490       0.00039415       0.00205791      -0.01806431
Sr       3.15266193       3.54684090      14.77173974       0.40875064       0.31878105       0.35824594
Ti       1.97047269       1.97057450      12.33352931      -0.47903714      -0.39564624      -0.23588200
Ti       1.18201077       1.57631578      16.28237817       0.10244535       0.03654412       0.09333902
O        0.00000902       1.97050521      12.36358488      -1.26319892       0.35501355      -0.36436440
O        3.15294791       1.57638358      16.39168115      -0.00565797      -0.00831315       0.14290089
O        1.97049401       3.94093312      12.42118208       0.37379032      -0.62074529      -0.01430870
O        1.18238144       3.54685933      16.38599059       0.03262164       0.00252431       0.20156600
O        1.97043419       1.97038596      10.48818828      -0.24139213      -0.11224331      -0.28972502
O        1.18235158       1.57633185      14.46801087       1.07128356       0.42202730       0.12629284
10
Lattice="3.940949890606662 0.0 0.0 0.0 3.940949890606662 0.0 0.0 0.0 26.940967945119528" Properties=species:S:1:pos:R:3:forces:R:3 tau=tau89 tau_p=8 tau_q=9 stage=B constraint=xy_fixed_z_free force_label=raw_dft energy=-15499.84730653227 free_energy=-15499.84730653227 stress="0.005060884774979377 0.0006904545266299876 -0.008956627536270651 0.0006904545266299876 0.0037993362116953313 -0.004372266563579789 -0.008956627536270651 -0.004372266563579789 -0.008301981156633442" pbc="T T T"
Sr       0.00003612       0.00009431      10.77358914       0.00161465       0.00264078      -0.18359451
Sr       3.15266193       3.54684090      14.82667170       0.31537537       0.27624318      -0.12177799
Ti       1.97047269       1.97057450      12.30833555      -0.44356466      -0.34335746      -0.14017320
Ti       1.18201077       1.57631578      16.28564936       0.09308756       0.03590571       0.17654634
O        0.00000902       1.97050521      12.32055947      -1.10352648       0.32037694      -0.07748945
O        3.15294791       1.57638358      16.39775140      -0.00813291      -0.00904694       0.23535081
O        1.97049401       3.94093312      12.41206079       0.39011734      -0.59517156       0.07515386
O        1.18238144       3.54685933      16.39696271       0.02937897      -0.00005939       0.27647072
O        1.97043419       1.97038596      10.47370554      -0.22339853      -0.10180694      -0.32402250
O        1.18235158       1.57633185      14.48003431       0.94904894       0.41427568       0.08353591
10
Lattice="3.940949890606662 0.0 0.0 0.0 3.940949890606662 0.0 0.0 0.0 26.940967945119528" Properties=species:S:1:pos:R:3:forces:R:3 tau=tau89 tau_p=8 tau_q=9 stage=B constraint=xy_fixed_z_free force_label=raw_dft energy=-15499.856357582772 free_energy=-15499.856357582772 stress="0.004869907991017892 0.0006803547928627937 -0.00863802684379644 0.0006803547928627937 0.00378556384746734 -0.004296977639133434 -0.00863802684379644 -0.004296977639133434 -0.007745577641822574" pbc="T T T"
Sr       0.00003612       0.00009431      10.77059312       0.00198206       0.00279248      -0.22837747
Sr       3.15266193       3.54684090      14.84030474       0.29252958       0.26519541      -0.20455028
Ti       1.97047269       1.97057450      12.29756921      -0.43811469      -0.33069066      -0.11394821
Ti       1.18201077       1.57631578      16.29067022       0.09121168       0.03631812       0.18782911
O        0.00000902       1.97050521      12.30625321      -1.05569059       0.30801096      -0.01435653
O        3.15294791       1.57638358      16.40472973      -0.00849878      -0.00924723       0.23597996
O        1.97049401       3.94093312      12.41079174       0.39177956      -0.58826018       0.05766419
O        1.18238144       3.54685933      16.40624783       0.02840915      -0.00089346       0.26763101
O        1.97043419       1.97038596      10.46285552      -0.21558674      -0.09722909      -0.26752097
O        1.18235158       1.57633185      14.48530465       0.91197878       0.41400392       0.07964892
10
Lattice="3.940949890606662 0.0 0.0 0.0 3.940949890606662 0.0 0.0 0.0 26.940967945119528" Properties=species:S:1:pos:R:3:forces:R:3 tau=tau89 tau_p=8 tau_q=9 stage=B constraint=xy_fixed_z_free force_label=raw_dft energy=-15499.86901169261 free_energy=-15499.86901169261 stress="0.005062721090209776 0.0006684187438652008 -0.008332280357935025 0.0006684187438652008 0.0041950621438462945 -0.004231788448454273 -0.008332280357935025 -0.004231788448454273 -0.006683269281036809" pbc="T T T"
Sr       0.00003612       0.00009431      10.76287880       0.00219546       0.00287938      -0.25554143
Sr       3.15266193       3.54684090      14.85133626       0.27212170       0.25496190      -0.23178212
Ti       1.97047269       1.97057450      12.28382195      -0.43604238      -0.32006121      -0.07489958
Ti       1.18201077       1.57631578      16.29960254       0.09037968       0.03736893       0.18634662
O        0.00000902       1.97050521      12.29072415      -1.00622359       0.29423936       0.02617486
O        3.15294791       1.57638358      16.41643286      -0.00859186      -0.00939430       0.21088420
O        1.97049401       3.94093312      12.41005554       0.39147308      -0.58105929       0.00591559
O        1.18238144       3.54685933      16.42093914       0.02733057      -0.00177535       0.23009908
O        1.97043419       1.97038596      10.44711864      -0.20588366      -0.09155827      -0.17871172
O        1.18235158       1.57633185      14.49241009       0.87324099       0.41439909       0.08151477
10
Lattice="3.940949890606662 0.0 0.0 0.0 3.940949890606662 0.0 0.0 0.0 26.940967945119528" Properties=species:S:1:pos:R:3:forces:R:3 tau=tau89 tau_p=8 tau_q=9 stage=B constraint=xy_fixed_z_free force_label=raw_dft energy=-15499.885424102733 free_energy=-15499.885424102733 stress="0.005734812464535775 0.0006491374339460123 -0.007979707833698436 0.0006491374339460123 0.005176572634494509 -0.004161090312083915 -0.007979707833698436 -0.004161090312083915 -0.0048974527194738755" pbc="T T T"
Sr       0.00003612       0.00009431      10.74741472       0.00231399       0.00278913      -0.25934203
Sr       3.15266193       3.54684090      14.86162404       0.25064528       0.24407148      -0.20374630
Ti       1.97047269       1.97057450      12.26441139      -0.43661214      -0.30944975      -0.01836590
Ti       1.18201077       1.57631578      16.31515758       0.09028583       0.03919852       0.16680752
O        0.00000902       1.97050521      12.27075504      -0.94538666       0.27657768       0.05158044
O        3.15294791       1.57638358      16.43580407      -0.00836483      -0.00945446       0.15477321
O        1.97049401       3.94093312      12.40850992       0.38872586      -0.57051031      -0.08253498
O        1.18238144       3.54685933      16.44454447       0.02589949      -0.00277859       0.15666349
O        1.97043419       1.97038596      10.42361383      -0.19265405      -0.08405399      -0.05432458
O        1.18235158       1.57633185      14.50348489       0.82514722       0.41361054       0.08848889
10
Lattice="3.940949890606662 0.0 0.0 0.0 3.940949890606662 0.0 0.0 0.0 26.940967945119528" Properties=species:S:1:pos:R:3:forces:R:3 tau=tau89 tau_p=8 tau_q=9 stage=B constraint=xy_fixed_z_free force_label=raw_dft energy=-15499.900835814213 free_energy=-15499.900835814213 stress="0.007042268908579794 0.0006133292869532338 -0.007572045852549878 0.0006133292869532338 0.00691464500006707 -0.004078456126715964 -0.007572045852549878 -0.004078456126715964 -0.002272440097618643" pbc="T T T"
Sr       0.00003612       0.00009431      10.71990720       0.00219135       0.00245386      -0.21739911
Sr       3.15266193       3.54684090      14.87062741       0.22862506       0.23295609      -0.10040389
Ti       1.97047269       1.97057450      12.23826878      -0.43881378      -0.29903910       0.04418441
Ti       1.18201077       1.57631578      16.34040484       0.09074066       0.04192055       0.12223024
O        0.00000902       1.97050521      12.24518777      -0.87106481       0.25462046       0.05801309
O        3.15294791       1.57638358      16.46555972      -0.00777707      -0.00941872       0.06281256
O        1.97049401       3.94093312      12.40356162       0.38194689      -0.55299570      -0.19923761
O        1.18238144       3.54685933      16.47995247       0.02387835      -0.00378132       0.04310866
O        1.97043419       1.97038596      10.39100875      -0.17560172      -0.07484378       0.09266153
O        1.18235158       1.57633185      14.52084140       0.76587532       0.40812792       0.09403013
10
Lattice="3.940949890606662 0.0 0.0 0.0 3.940949890606662 0.0 0.0 0.0 26.940967945119528" Properties=species:S:1:pos:R:3:forces:R:3 tau=tau89 tau_p=8 tau_q=9 stage=B constraint=xy_fixed_z_free force_label=raw_dft energy=-15499.90670231646 free_energy=-15499.90670231646 stress="0.008067850964757583 0.000579357455190854 -0.007371887492436398 0.000579357455190854 0.00815599409581673 -0.0040334664035711915 -0.007371887492436398 -0.0040334664035711915 -0.000683109265708392" pbc="T T T"
Sr       0.00003612       0.00009431      10.69791546       0.00179437       0.00203426      -0.14780372
Sr       3.15266193       3.54684090      14.87330947       0.21968302       0.22859652      -0.00638122
Ti       1.97047269       1.97057450      12.22370978      -0.44132960      -0.29566684       0.06583824
Ti       1.18201077       1.57631578      16.35883219       0.09115821       0.04355886       0.07768640
O        0.00000902       1.97050521      12.23129701      -0.83051671       0.24295999       0.05019822
O        3.15294791       1.57638358      16.48526533      -0.00720886      -0.00933619       0.00711039
O        1.97049401       3.94093312      12.39570080       0.37524376      -0.53763593      -0.24067094
O        1.18238144       3.54685933      16.50259782       0.02242131      -0.00413433      -0.02289593
O        1.97043419       1.97038596      10.37294965      -0.16601793      -0.07034075       0.13414268
O        1.18235158       1.57633185      14.53374244       0.73477243       0.39996415       0.08277589
10
Lattice="3.940949890606662 0.0 0.0 0.0 3.940949890606662 0.0 0.0 0.0 26.940967945119528" Properties=species:S:1:pos:R:3:forces:R:3 tau=tau89 tau_p=8 tau_q=9 stage=B constraint=xy_fixed_z_free force_label=raw_dft energy=-15499.910253538113 free_energy=-15499.910253538113 stress="0.008754632860926773 0.0005490582538892722 -0.007287416991838047 0.0005490582538892722 0.008861139144289909 -0.004005003517500008 -0.007287416991838047 -0.004005003517500008 0.00010466996813273751" pbc="T T T"
Sr       0.00003612       0.00009431      10.68154208       0.00121562       0.00164653      -0.07135274
Sr       3.15266193       3.54684090      14.87402439       0.21701139       0.22754546       0.05414563
Ti       1.97047269       1.97057450      12.21737839      -0.44399481      -0.29605893       0.05086516
Ti       1.18201077       1.57631578      16.37142280       0.09173979       0.04394478       0.03452812
O        0.00000902       1.97050521      12.22509809      -0.80972215       0.23761570       0.04703396
O        3.15294791       1.57638358      16.49686312      -0.00683348      -0.00919684      -0.01453419
O        1.97049401       3.94093312      12.38514303       0.36907543      -0.52332054      -0.21814679
O        1.18238144       3.54685933      16.51507075       0.02122677      -0.00411402      -0.04728516
O        1.97043419       1.97038596      10.36553754      -0.16098860      -0.06868985       0.10709930
O        1.18235158       1.57633185      14.54323977       0.72126977       0.39062796       0.05764722
10
Lattice="3.940949890606662 0.0 0.0 0.0 3.940949890606662 0.0 0.0 0.0 26.940967945119528" Properties=species:S:1:pos:R:3:forces:R:3 tau=tau89 tau_p=8 tau_q=9 stage=B constraint=xy_fixed_z_free force_label=raw_dft energy=-15499.913314002455 free_energy=-15499.913314002455 stress="0.00926145586451687 0.0005150864221268924 -0.007244263583923673 0.0005150864221268924 0.009214629826141697 -0.003972868000968027 -0.007244263583923673 -0.003972868000968027 0.00044438828575653463" pbc="T T T"
Sr       0.00003612       0.00009431      10.66687389       0.00049031       0.00116060       0.01605165
Sr       3.15266193       3.54684090      14.87550156       0.21635139       0.22737756       0.08568227
Ti       1.97047269       1.97057450      12.21514378      -0.44600464      -0.29828550       0.00586443
Ti       1.18201077       1.57631578      16.38182002       0.09218845       0.04375503      -0.00981416
O        0.00000902       1.97050521      12.22303061      -0.79692397       0.23525157       0.05157093
O        3.15294791       1.57638358      16.50478543      -0.00661879      -0.00896595      -0.01311725
O        1.97049401       3.94093312      12.36954292       0.36192468      -0.50587560      -0.13954148
O        1.18238144       3.54685933      16.52234923       0.01989725      -0.00392582      -0.04367173
O        1.97043419       1.97038596      10.36404290      -0.15761505      -0.06858701       0.02820037
O        1.18235158       1.57633185      14.55222964       0.71631011       0.37809512       0.01877497
10
Lattice="3.940949890606662 0.0 0.0 0.0 3.940949890606662 0.0 0.0 0.0 26.940967945119528" Properties=species:S:1:pos:R:3:forces:R:3 tau=tau89 tau_p=8 tau_q=9 stage=B constraint=xy_fixed_z_free force_label=raw_dft energy=-15499.914591304812 free_energy=-15499.914591304812 stress="0.009296345853894447 0.0004994777426685017 -0.007232327534926082 0.0004994777426685017 0.00905946118917299 -0.003944405114896844 -0.007232327534926082 -0.003944405114896844 0.00028003807263583276" pbc="T T T"
Sr       0.00003612       0.00009431      10.66291018       0.00018152       0.00098242       0.04879465
Sr       3.15266193       3.54684090      14.87839006       0.21557569       0.22664686       0.06546311
Ti       1.97047269       1.97057450      12.21602345      -0.44455865      -0.29920339      -0.02775917
Ti       1.18201077       1.57631578      16.38423825       0.09214782       0.04303924      -0.02278872
O        0.00000902       1.97050521      12.22502918      -0.79583433       0.23598382       0.05738779
O        3.15294791       1.57638358      16.50574086      -0.00678926      -0.00873070       0.00346996
O        1.97049401       3.94093312      12.35902856       0.35790039      -0.49541121      -0.06812266
O        1.18238144       3.54685933      16.52179008       0.01913029      -0.00376461      -0.02242156
O        1.97043419       1.97038596      10.36658113      -0.15667711      -0.06933674      -0.03070926
O        1.18235158       1.57633185      14.55558820       0.71892364       0.36979405      -0.00331441
10
Lattice="3.940949890606662 0.0 0.0 0.0 3.940949890606662 0.0 0.0 0.0 26.940967945119528" Properties=species:S:1:pos:R:3:forces:R:3 tau=tau89 tau_p=8 tau_q=9 stage=B constraint=xy_fixed_z_free force_label=raw_dft energy=-15499.915212812823 free_energy=-15499.915212812823 stress="0.009149440635462535 0.0004948869545925045 -0.007210291752161294 0.0004948869545925045 0.008760141806617968 -0.003911351440749664 -0.007210291752161294 -0.003911351440749664 4.0398935068775876e-05" pbc="T T T"
Sr       0.00003612       0.00009431      10.66361884       0.00016018       0.00098448       0.04727950
Sr       3.15266193       3.54684090      14.88218518       0.21327866       0.22475581       0.02790444
Ti       1.97047269       1.97057450      12.21617627      -0.44057318      -0.29820117      -0.04122635
Ti       1.18201077       1.57631578      16.38372998       0.09190074       0.04231624      -0.01710709
O        0.00000902       1.97050521      12.22774820      -0.79751506       0.23708451       0.05599066
O        3.15294791       1.57638358      16.50517775      -0.00711990      -0.00850932       0.01741485
O        1.97049401       3.94093312      12.35238561       0.35534600      -0.48880502      -0.02192534
O        1.18238144       3.54685933      16.51967511       0.01866030      -0.00367719      -0.00377772
O        1.97043419       1.97038596      10.36806716      -0.15589164      -0.06980725      -0.05374814
O        1.18235158       1.57633185      14.55655585       0.72175391       0.36385892      -0.01080506
10
Lattice="3.940949890606662 0.0 0.0 0.0 3.940949890606662 0.0 0.0 0.0 26.940967945119528" Properties=species:S:1:pos:R:3:forces:R:3 tau=tau89 tau_p=8 tau_q=9 stage=B constraint=xy_fixed_z_free force_label=raw_dft energy=-15499.915613772564 free_energy=-15499.915613772564 stress="0.009025489357410611 0.0004930506393621056 -0.007172647289938117 0.0004930506393621056 0.008520502669050913 -0.0038737069785264866 -0.007172647289938117 -0.0038737069785264866 -7.069813637035779e-05" pbc="T T T"
Sr       0.00003612       0.00009431      10.66513777       0.00025197       0.00106495       0.03129495
Sr       3.15266193       3.54684090      14.88609233       0.20983930       0.22196205      -0.00519106
Ti       1.97047269       1.97057450      12.21447530      -0.43524920      -0.29594683      -0.03770163
Ti       1.18201077       1.57631578      16.38325049       0.09173490       0.04175703      -0.00512498
O        0.00000902       1.97050521      12.23015968      -0.79864943       0.23769026       0.04402551
O        3.15294791       1.57638358      16.50569700      -0.00748808      -0.00829129       0.02256066
O        1.97049401       3.94093312      12.34752966       0.35297570      -0.48352089       0.00194890
O        1.18238144       3.54685933      16.51875914       0.01825766      -0.00364377       0.00581712
O        1.97043419       1.97038596      10.36704916      -0.15439577      -0.06972549      -0.04844524
O        1.18235158       1.57633185      14.55716944       0.72272347       0.35865424      -0.00918398
10
Lattice="3.940949890606662 0.0 0.0 0.0 3.940949890606662 0.0 0.0 0.0 26.940967945119528" Properties=species:S:1:pos:R:3:forces:R:3 tau=tau89 tau_p=8 tau_q=9 stage=B constraint=xy_fixed_z_free force_label=raw_dft energy=-15499.915894457987 free_energy=-15499.915894457987 stress="0.009001617259415425 0.0004921324817469061 -0.0071267394091781445 0.0004921324817469061 0.00840665112476618 -0.0038333080434577106 -0.0071267394091781445 -0.0038333080434577106 -8.263418536795066e-06" pbc="T T T"
Sr       0.00003612       0.00009431      10.66584553       0.00038952       0.00117345       0.01290025
Sr       3.15266193       3.54684090      14.88938059       0.20610040       0.21874534      -0.02340218
Ti       1.97047269       1.97057450      12.21104710      -0.42968585      -0.29322069      -0.02145714
Ti       1.18201077       1.57631578      16.38393700       0.09174287       0.04141147       0.00516509
O        0.00000902       1.97050521      12.23208356      -0.79853708       0.23771057       0.02197856
O        3.15294791       1.57638358      16.50800362      -0.00781178      -0.00807429       0.01807331
O        1.97049401       3.94093312      12.34340547       0.35032232      -0.47855352       0.00868930
O        1.18238144       3.54685933      16.51971588       0.01785605      -0.00362808       0.00572919
O        1.97043419       1.97038596      10.36367480      -0.15213526      -0.06914956      -0.02470213
O        1.18235158       1.57633185      14.55822642       0.72175854       0.35358582      -0.00297425
