10
Lattice="3.940949890606662 0.0 0.0 0.0 3.940949890606662 0.0 0.0 0.0 26.940967945119528" Properties=species:S:1:pos:R:3:forces:R:3 tau=tau59 tau_p=5 tau_q=9 stage=B constraint=xy_fixed_z_free force_label=raw_dft energy=-15497.108096113292 free_energy=-15497.108096113292 stress="0.022392027919484227 0.0 -9.181576151994517e-07 0.0 0.004302486584824631 0.0007042268908579794 -9.181576151994517e-07 0.0007042268908579794 -0.03506719379731266" pbc="T T T"
Sr       0.00003626       0.00009419      10.75260867      -0.00009822       0.00935393       0.35751138
Sr       1.97037682       3.54684071      14.64522241      -0.00026457       0.60601159       5.12143901
Ti       1.97047258       1.97057465      12.38212169       0.00007225      -0.95107626      -3.07528081
Ti       3.94067560       1.57631572      16.28444791       0.00036998      -0.05780431       0.20528973
O        0.00000906       1.97050529      12.45001441      -0.00008150       0.92556243      -3.66343068
O        1.97066293       1.57638350      16.39256827      -0.00047874      -0.09907360      -0.31793413
O        1.97049386       3.94093294      12.44909065       0.00007199       0.20369102      -1.54566160
O        0.00009655       3.54685924      16.37955485       0.00036972      -0.00316066      -0.05412095
O        1.97043435       1.97038588      10.49176941       0.00013833      -0.05587007       0.34330706
O        0.00006660       1.57633188      14.44792112      -0.00009899      -0.57763381       2.62888125
10
Lattice="3.940949890606662 0.0 0.0 0.0 3.940949890606662 0.0 0.0 0.0 26.940967945119528" Properties=species:S:1:pos:R:3:forces:R:3 tau=tau59 tau_p=5 tau_q=9 stage=B constraint=xy_fixed_z_free force_label=raw_dft energy=-15498.043374642484 free_energy=-15498.043374642484 stress="0.01598787855346805 0.0 0.0 0.0 0.0026837747092279974 -0.0005775211399604551 0.0 -0.0005775211399604551 -0.03221998703257916" pbc="T T T"
Sr       0.00003612       0.00009431      10.75996691      -0.00012316       0.01023505       0.33661165
Sr       1.97037695       3.54684090      14.75063071      -0.00016044       0.55388324       3.05695116
Ti       1.97047269       1.97057450      12.31882740       0.00007996      -0.65717268      -1.51464304
Ti       3.94067571       1.57631578      16.28867313       0.00071682      -0.03778030       0.74168741
O        0.00000902       1.97050521      12.37461476      -0.00009282       0.63994706      -2.48352393
O        1.97066294       1.57638358      16.38602470      -0.00085412      -0.08402674      -0.01766476
O        1.97049401       3.94093312      12.41727827       0.00001157      -0.03866039      -0.57937162
O        0.00009646       3.54685933      16.37844090       0.00024965      -0.00202423       0.19960914
O        1.97043419       1.97038596      10.49883524       0.00016712      -0.05489280      -0.64503785
O        0.00006661       1.57633185      14.50202794       0.00000540      -0.32950795       0.90538158
10
Lattice="3.940949890606662 0.0 0.0 0.0 3.940949890606662 0.0 0.0 0.0 26.940967945119528" Properties=species:S:1:pos:R:3:forces:R:3 tau=tau59 tau_p=5 tau_q=9 stage=B constraint=xy_fixed_z_free force_label=raw_dft energy=-15498.590345227287 free_energy=-15498.590345227287 stress="0.009153113265923335 0.0 0.0 0.0 2.4790255610385195e-05 -0.0013561187976495902 0.0 -0.0013561187976495902 -0.028525320789016564" pbc="T T T"
Sr       0.00003612       0.00009431      10.77223564      -0.00014810       0.01163476       0.01293753
Sr       1.97037695       3.54684090      14.86657953      -0.00001774       0.47301253       1.19957646
Ti       1.97047269       1.97057450      12.26007828       0.00012007      -0.45416403      -0.49356825
Ti       3.94067571       1.57631578      16.31429854       0.00100787      -0.02366880       0.42299661
O        0.00000902       1.97050521      12.28161750      -0.00010799       0.43489593      -1.38015378
O        1.97066294       1.57638358      16.38465795      -0.00105569      -0.06581921       0.46580470
O        1.97049401       3.94093312      12.39391351      -0.00000437      -0.17160494       0.00434876
O        0.00009646       3.54685933      16.38507315       0.00002982      -0.00083792       0.61487469
O        1.97043419       1.97038596      10.47781006       0.00016404      -0.04928908      -1.15417464
O        0.00006661       1.57633185      14.53905580       0.00001208      -0.15415923       0.30735790
10
Lattice="3.940949890606662 0.0 0.0 0.0 3.940949890606662 0.0 0.0 0.0 26.940967945119528" Properties=species:S:1:pos:R:3:forces:R:3 tau=tau59 tau_p=5 tau_q=9 stage=B constraint=xy_fixed_z_free force_label=raw_dft energy=-15498.840188589103 free_energy=-15498.840188589103 stress="0.0034449273722283427 0.0 9.181576151994517e-07 0.0 -0.0027067286496079835 -0.001717872898038174 9.181576151994517e-07 -0.001717872898038174 -0.023929941924943306" pbc="T T T"
Sr       0.00003612       0.00009431      10.77839852      -0.00016481       0.01220554      -0.52801717
Sr       1.97037695       3.54684090      14.97075180       0.00009513       0.39360453      -0.13840043
Ti       1.97047269       1.97057450      12.21019656       0.00012444      -0.33205412      -0.45425017
Ti       3.94067571       1.57631578      16.34055194       0.00127732      -0.01237909       0.24296719
O        0.00000902       1.97050521      12.18356212      -0.00012727       0.29872002      -0.35932555
O        1.97066294       1.57638358      16.40082945      -0.00117962      -0.05137373       0.82652019
O        1.97049401       3.94093312      12.38071276      -0.00003908      -0.22519958       0.28005947
O        0.00009646       3.54685933      16.41067565      -0.00019386      -0.00143982       0.89703681
O        1.97043419       1.97038596      10.42724210       0.00020235      -0.03959576      -0.77977677
O        0.00006661       1.57633185      14.57239906       0.00000566      -0.04248799       0.01318642
10
Lattice="3.940949890606662 0.0 0.0 0.0 3.940949890606662 0.0 0.0 0.0 26.940967945119528" Properties=species:S:1:pos:R:3:forces:R:3 tau=tau59 tau_p=5 tau_q=9 stage=B constraint=xy_fixed_z_free force_label=raw_dft energy=-15498.941782018652 free_energy=-15498.941782018652 stress="0.0016783921205845978 0.0 9.181576151994517e-07 0.0 -0.0028591428137310923 -0.0017876528767933326 9.181576151994517e-07 -0.0017876528767933326 -0.0210983438396682" pbc="T T T"
Sr       0.00003612       0.00009431      10.76641252      -0.00016327       0.01201939      -0.74395461
Sr       1.97037695       3.54684090      15.01815710       0.00010156       0.34908793      -0.54759767
Ti       1.97047269       1.97057450      12.17085448       0.00012393      -0.27938507      -0.27786400
Ti       3.94067571       1.57631578      16.35890641       0.00130766      -0.00732147       0.28951393
O        0.00000902       1.97050521      12.12767527      -0.00012907       0.24190147       0.03793483
O        1.97066294       1.57638358      16.42981548      -0.00116600      -0.04408079       0.83576691
O        1.97049401       3.94093312      12.38037215      -0.00004525      -0.23804404       0.18879328
O        0.00009646       3.54685933      16.44588498      -0.00023963      -0.00217001       0.85552532
O        1.97043419       1.97038596      10.38663748       0.00021700      -0.03332921      -0.59233743
O        0.00006661       1.57633185      14.59060410      -0.00000694       0.00132180      -0.04578055
10
Lattice="3.940949890606662 0.0 0.0 0.0 3.940949890606662 0.0 0.0 0.0 26.940967945119528" Properties=species:S:1:pos:R:3:forces:R:3 tau=tau59 tau_p=5 tau_q=9 stage=B constraint=xy_fixed_z_free force_label=raw_dft energy=-15499.059445539111 free_energy=-15499.059445539111 stress="0.0016554381802046112 0.0 0.0 0.0 -0.0010522086270185716 -0.0018271336542469087 0.0 -0.0018271336542469087 -0.01652959154643573" pbc="T T T"
Sr       0.00003612       0.00009431      10.73352663      -0.00016532       0.01133111      -0.86205361
Sr       1.97037695       3.54684090      15.05918741       0.00004782       0.30733502      -0.69826174
Ti       1.97047269       1.97057450      12.11985956       0.00013010      -0.23383309      -0.08723110
Ti       3.94067571       1.57631578      16.38765962       0.00125444      -0.00393790       0.36898904
O        0.00000902       1.97050521      12.06619972      -0.00013730       0.19161995       0.31387565
O        1.97066294       1.57638358      16.48187904      -0.00103615      -0.03669401       0.66349554
O        1.97049401       3.94093312      12.38189476      -0.00005399      -0.24563548      -0.05657327
O        0.00009646       3.54685933      16.50513320      -0.00019875      -0.00290638       0.63012391
O        1.97043419       1.97038596      10.32844541       0.00022497      -0.02617872      -0.31240729
O        0.00006661       1.57633185      14.61153461      -0.00006556       0.03889899       0.04004262
10
Lattice="3.940949890606662 0.0 0.0 0.0 3.940949890606662 0.0 0.0 0.0 26.940967945119528" Properties=species:S:1:pos:R:3:forces:R:3 tau=tau59 tau_p=5 tau_q=9 stage=B constraint=xy_fixed_z_free force_label=raw_dft energy=-15499.18105838377 free_energy=-15499.18105838377 stress="0.003893906446060875 0.0 -0.0 0.0 0.003579896541662662 -0.0018546783827028924 -0.0 -0.0018546783827028924 -0.009554348143765495" pbc="T T T"
Sr       0.00003612       0.00009431      10.66580009      -0.00015915       0.00899115      -0.80836152
Sr       1.97037695       3.54684090      15.09318908      -0.00005528       0.26873556      -0.55502918
Ti       1.97047269       1.97057450      12.05271105       0.00013241      -0.19121217       0.13580670
Ti       3.94067571       1.57631578      16.43635812       0.00101430      -0.00134700       0.45504027
O        0.00000902       1.97050521      11.99637476      -0.00013087       0.14488938       0.42286317
O        1.97066294       1.57638358      16.56611604      -0.00076156      -0.02939517       0.28507415
O        1.97049401       3.94093312      12.37928718      -0.00006505      -0.24792788      -0.44653737
O        0.00009646       3.54685933      16.59734652      -0.00005528      -0.00369905       0.20248054
O        1.97043419       1.97038596      10.24633145       0.00023320      -0.01880453       0.04187221
O        0.00006661       1.57633185      14.64180567      -0.00015298       0.06977023       0.26679103
10
Lattice="3.940949890606662 0.0 0.0 0.0 3.940949890606662 0.0 0.0 0.0 26.940967945119528" Properties=species:S:1:pos:R:3:forces:R:3 tau=tau59 tau_p=5 tau_q=9 stage=B constraint=xy_fixed_z_free force_label=raw_dft energy=-15499.245975085632 free_energy=-15499.245975085632 stress="0.006820992923316727 0.0 -9.181576151994517e-07 0.0 0.007883301284102492 -0.0018868138992348734 -9.181576151994517e-07 -0.0018868138992348734 -0.00477074696857635" pbc="T T T"
Sr       0.00003612       0.00009431      10.60202335      -0.00015067       0.00692192      -0.58696845
Sr       1.97037695       3.54684090      15.09871509      -0.00011930       0.25563373      -0.27228677
Ti       1.97047269       1.97057450      12.01521456       0.00012547      -0.17650957       0.18277561
Ti       3.94067571       1.57631578      16.47890203       0.00076876      -0.00008767       0.43638023
O        0.00000902       1.97050521      11.96412849      -0.00011724       0.12449461       0.32533222
O        1.97066294       1.57638358      16.62658732      -0.00053710      -0.02584344       0.01157948
O        1.97049401       3.94093312      12.36612321      -0.00007045      -0.24460113      -0.63861086
O        0.00009646       3.54685933      16.66062297       0.00007610      -0.00386257      -0.07933319
O        1.97043419       1.97038596      10.19521748       0.00022857      -0.01582848       0.21436418
O        0.00006661       1.57633185      14.66778547      -0.00020389       0.07968234       0.40676755
10
Lattice="3.940949890606662 0.0 0.0 0.0 3.940949890606662 0.0 0.0 0.0 26.940967945119528" Properties=species:S:1:pos:R:3:forces:R:3 tau=tau59 tau_p=5 tau_q=9 stage=B constraint=xy_fixed_z_free force_label=raw_dft energy=-15499.29709044571 free_energy=-15499.29709044571 stress="0.010051989571203597 0.0 -9.181576151994517e-07 0.0 0.011783634833469763 -0.0019336399376100454 -9.181576151994517e-07 -0.0019336399376100454 -0.0011862596388376916" pbc="T T T"
Sr       0.00003612       0.00009431      10.53433930      -0.00014244       0.00458839      -0.25251190
Sr       1.97037695       3.54684090      15.09229116      -0.00016584       0.25247590       0.05003341
Ti       1.97047269       1.97057450      11.99197732       0.00011081      -0.17224129       0.10814368
Ti       3.94067571       1.57631578      16.52510634       0.00053865       0.00093382       0.29562184
O        0.00000902       1.97050521      11.94948372      -0.00010464       0.11301001       0.15866586
O        1.97066294       1.57638358      16.67572380      -0.00036947      -0.02378862      -0.15267879
O        1.97049401       3.94093312      12.33822960      -0.00007508      -0.23735550      -0.66571697
O        0.00009646       3.54685933      16.70928893       0.00019438      -0.00392505      -0.23055905
O        1.97043419       1.97038596      10.15985340       0.00023243      -0.01472599       0.24553881
O        0.00006661       1.57633185      14.69902639      -0.00021880       0.08102832       0.44346284
10
Lattice="3.940949890606662 0.0 0.0 0.0 3.940949890606662 0.0 0.0 0.0 26.940967945119528" Properties=species:S:1:pos:R:3:forces:R:3 tau=tau59 tau_p=5 tau_q=9 stage=B constraint=xy_fixed_z_free force_label=raw_dft energy=-15499.330306157482 free_energy=-15499.330306157482 stress="0.012242713641069488 0.0 -9.181576151994517e-07 0.0 0.013826535527288544 -0.001962102823681228 -9.181576151994517e-07 -0.001962102823681228 0.0004021530354573599" pbc="T T T"
Sr       0.00003612       0.00009431      10.48160982      -0.00012984       0.00290252       0.04781738
Sr       1.97037695       3.54684090      15.08684196      -0.00016918       0.25204293       0.27244875
Ti       1.97047269       1.97057450      11.98083571       0.00009719      -0.17219115      -0.03539586
Ti       3.94067571       1.57631578      16.56452415       0.00039466       0.00181597       0.10832366
O        0.00000902       1.97050521      11.94625000      -0.00009153       0.10734741       0.04419392
O        1.97066294       1.57638358      16.70466891      -0.00029748      -0.02261619      -0.16838643
O        1.97049401       3.94093312      12.30077423      -0.00007199      -0.22726289      -0.54793114
O        0.00009646       3.54685933      16.73548580       0.00026045      -0.00397775      -0.22572717
O        1.97043419       1.97038596      10.14279153       0.00021932      -0.01488977       0.15375351
O        0.00006661       1.57633185      14.73153785      -0.00021134       0.07682893       0.35090287
10
Lattice="3.940949890606662 0.0 0.0 0.0 3.940949890606662 0.0 0.0 0.0 26.940967945119528" Properties=species:S:1:pos:R:3:forces:R:3 tau=tau59 tau_p=5 tau_q=9 stage=B constraint=xy_fixed_z_free force_label=raw_dft energy=-15499.351779068666 free_energy=-15499.351779068666 stress="0.013009375249761031 0.0 -9.181576151994517e-07 0.0 0.014093719393311582 -0.0019428215137620398 -9.181576151994517e-07 -0.0019428215137620398 0.00046091512283012476" pbc="T T T"
Sr       0.00003612       0.00009431      10.44961727      -0.00012316       0.00182111       0.22387855
Sr       1.97037695       3.54684090      15.09291520      -0.00017046       0.24617207       0.34490115
Ti       1.97047269       1.97057450      11.97183946       0.00009513      -0.16767809      -0.14394013
Ti       3.94067571       1.57631578      16.59349655       0.00037512       0.00227157      -0.03318317
O        0.00000902       1.97050521      11.94395735      -0.00008562       0.10311923       0.01758763
O        1.97066294       1.57638358      16.71894363      -0.00033450      -0.02162709      -0.09288496
O        1.97049401       3.94093312      12.26127052      -0.00007302      -0.21558237      -0.38642421
O        0.00009646       3.54685933      16.74652536       0.00028668      -0.00394047      -0.13515492
O        1.97043419       1.97038596      10.13470590       0.00021392      -0.01539448       0.01583388
O        0.00006661       1.57633185      14.76204872      -0.00018409       0.07083826       0.18938669
10
Lattice="3.940949890606662 0.0 0.0 0.0 3.940949890606662 0.0 0.0 0.0 26.940967945119528" Properties=species:S:1:pos:R:3:forces:R:3 tau=tau59 tau_p=5 tau_q=9 stage=B constraint=xy_fixed_z_free force_label=raw_dft energy=-15499.370249747863 free_energy=-15499.370249747863 stress="0.012733927965201194 0.0 -9.181576151994517e-07 0.0 0.013267377539632075 -0.001860187328394089 -9.181576151994517e-07 -0.001860187328394089 -0.00025616597464064704" pbc="T T T"
Sr       0.00003612       0.00009431      10.42849619      -0.00012007       0.00115777       0.28772058
Sr       1.97037695       3.54684090      15.11488556      -0.00015452       0.23018341       0.29480526
Ti       1.97047269       1.97057450      11.95569379       0.00008999      -0.15534760      -0.19277952
Ti       3.94067571       1.57631578      16.61949461       0.00041138       0.00220909      -0.11431613
O        0.00000902       1.97050521      11.93605743      -0.00008176       0.09729851       0.05175039
O        1.97066294       1.57638358      16.73084740      -0.00041832      -0.02007697       0.02327337
O        1.97049401       3.94093312      12.21589160      -0.00006865      -0.20019972      -0.22137121
O        0.00009646       3.54685933      16.75509662       0.00028102      -0.00371087      -0.00991906
O        1.97043419       1.97038596      10.12384878       0.00020980      -0.01557009      -0.11831960
O        0.00006661       1.57633185      14.79500799      -0.00014887       0.06405621      -0.00084461
10
Lattice="3.940949890606662 0.0 0.0 0.0 3.940949890606662 0.0 0.0 0.0 26.940967945119528" Properties=species:S:1:pos:R:3:forces:R:3 tau=tau59 tau_p=5 tau_q=9 stage=B constraint=xy_fixed_z_free force_label=raw_dft energy=-15499.38582268679 free_energy=-15499.38582268679 stress="0.011759762735474579 0.0 -9.181576151994517e-07 0.0 0.011896568220139295 -0.001719709213268573 -9.181576151994517e-07 -0.001719709213268573 -0.0011082162415457382" pbc="T T T"
Sr       0.00003612       0.00009431      10.41383513      -0.00012984       0.00077467       0.23520246
Sr       1.97037695       3.54684090      15.15179180      -0.00014475       0.20495857       0.15310842
Ti       1.97047269       1.97057450      11.92829845       0.00009976      -0.13690070      -0.17466507
Ti       3.94067571       1.57631578      16.64446646       0.00050882       0.00206717      -0.11727701
O        0.00000902       1.97050521      11.92023945      -0.00008022       0.08942785       0.11200085
O        1.97066294       1.57638358      16.74828974      -0.00051396      -0.01776812       0.12460980
O        1.97049401       3.94093312      12.16767185      -0.00006453      -0.18180476      -0.09934100
O        0.00009646       3.54685933      16.76963182       0.00025274      -0.00330490       0.09419339
O        1.97043419       1.97038596      10.10294455       0.00019360      -0.01498002      -0.18489908
O        0.00006661       1.57633185      14.82815071      -0.00012136       0.05753023      -0.14293277
10
Lattice="3.940949890606662 0.0 0.0 0.0 3.940949890606662 0.0 0.0 0.0 26.940967945119528" Properties=species:S:1:pos:R:3:forces:R:3 tau=tau59 tau_p=5 tau_q=9 stage=B constraint=xy_fixed_z_free force_label=raw_dft energy=-15499.397520724659 free_energy=-15499.397520724659 stress="0.010846195908351123 0.0 -9.181576151994517e-07 0.0 0.010787433820978359 -0.0015544408425326717 -9.181576151994517e-07 -0.0015544408425326717 -0.0013083746016592187" pbc="T T T"
Sr       0.00003612       0.00009431      10.39692343      -0.00013164       0.00052965       0.12638489
Sr       1.97037695       3.54684090      15.19542521      -0.00013961       0.17694846       0.01063280
Ti       1.97047269       1.97057450      11.89013234       0.00009642      -0.11829311      -0.11217235
Ti       3.94067571       1.57631578      16.67200978       0.00057104       0.00244512      -0.07952396
O        0.00000902       1.97050521      11.89825036      -0.00007688       0.08060408       0.14702108
O        1.97066294       1.57638358      16.77773611      -0.00056204      -0.01497179       0.15774155
O        1.97049401       3.94093312      12.11928766      -0.00006068      -0.16269041      -0.04564762
O        0.00009646       3.54685933      16.79668092       0.00022677      -0.00280713       0.12777354
O        1.97043419       1.97038596      10.06894871       0.00019386      -0.01369575      -0.15726744
O        0.00006661       1.57633185      14.85992544      -0.00011724       0.05193063      -0.17494249
10
Lattice="3.940949890606662 0.0 0.0 0.0 3.940949890606662 0.0 0.0 0.0 26.940967945119528" Properties=species:S:1:pos:R:3:forces:R:3 tau=tau59 tau_p=5 tau_q=9 stage=B constraint=xy_fixed_z_free force_label=raw_dft energy=-15499.40482861391 free_energy=-15499.40482861391 stress="0.010543203895335303 0.0 -9.181576151994517e-07 0.0 0.010347636323297821 -0.0014102900969463577 -9.181576151994517e-07 -0.0014102900969463577 -0.000723508200777168" pbc="T T T"
Sr       0.00003612       0.00009431      10.37520438      -0.00013524       0.00035944       0.03632737
Sr       1.97037695       3.54684090      15.23394328      -0.00014501       0.15345578      -0.05684195
Ti       1.97047269       1.97057450      11.84962597       0.00008973      -0.10365891      -0.05008972
Ti       3.94067571       1.57631578      16.70064876       0.00057798       0.00282487      -0.03552956
O        0.00000902       1.97050521      11.87722990      -0.00006762       0.07307744       0.12998186
O        1.97066294       1.57638358      16.81516562      -0.00054919      -0.01255341       0.11715874
O        1.97049401       3.94093312      12.07450193      -0.00005631      -0.14591396      -0.04024394
O        0.00009646       3.54685933      16.83183179       0.00022420      -0.00232325       0.08956206
O        1.97043419       1.97038596      10.02935112       0.00019052      -0.01236264      -0.07092877
O        0.00006661       1.57633185      14.88781722      -0.00012907       0.04709464      -0.11939612
10
Lattice="3.940949890606662 0.0 0.0 0.0 3.940949890606662 0.0 0.0 0.0 26.940967945119528" Properties=species:S:1:pos:R:3:forces:R:3 tau=tau59 tau_p=5 tau_q=9 stage=B constraint=xy_fixed_z_free force_label=raw_dft energy=-15499.407498867007 free_energy=-15499.407498867007 stress="0.010785597505747958 0.0 -9.181576151994517e-07 0.0 0.010394462361672992 -0.0013258195963480083 -9.181576151994517e-07 -0.0013258195963480083 -1.2854206612792324e-05" pbc="T T T"
Sr       0.00003612       0.00009431      10.35792267      -0.00013627       0.00027614       0.00481645
Sr       1.97037695       3.54684090      15.25454360      -0.00015761       0.14072290      -0.04978941
Ti       1.97047269       1.97057450      11.82316665       0.00008819      -0.09581936      -0.00472080
Ti       3.94067571       1.57631578      16.72026664       0.00055073       0.00264438      -0.00735618
O        0.00000902       1.97050521      11.86703728      -0.00005939       0.06933802       0.08020402
O        1.97066294       1.57638358      16.84318884      -0.00050625      -0.01131311       0.05403148
O        1.97049401       3.94093312      12.04436570      -0.00005245      -0.13588460      -0.04459321
O        0.00009646       3.54685933      16.85772528       0.00023526      -0.00213042       0.03205446
O        1.97043419       1.97038596      10.00250442       0.00018486      -0.01160287      -0.01048856
O        0.00006661       1.57633185      14.90459888      -0.00014707       0.04376866      -0.05415849
10
Lattice="3.940949890606662 0.0 0.0 0.0 3.940949890606662 0.0 0.0 0.0 26.940967945119528" Properties=species:S:1:pos:R:3:forces:R:3 tau=tau59 tau_p=5 tau_q=9 stage=B constraint=xy_fixed_z_free force_label=raw_dft energy=-15499.408190308272 free_energy=-15499.408190308272 stress="0.01106655373599899 0.0 -9.181576151994517e-07 0.0 0.010468833128504149 -0.0013047019711984209 -9.181576151994517e-07 -0.0013047019711984209 0.0002928922792486251" pbc="T T T"
Sr       0.00003612       0.00009431      10.35324509      -0.00013755       0.00024143       0.00647558
Sr       1.97037695       3.54684090      15.25721691      -0.00016378       0.13806618      -0.02666851
Ti       1.97047269       1.97057450      11.81700336       0.00008330      -0.09462354       0.00281947
Ti       3.94067571       1.57631578      16.72520052       0.00053916       0.00247212      -0.00274182
O        0.00000902       1.97050521      11.86837394      -0.00005759       0.06929123       0.04520488
O        1.97066294       1.57638358      16.85158730      -0.00048182      -0.01100509       0.02206829
O        1.97049401       3.94093312      12.03426271      -0.00005245      -0.13324408      -0.03539972
O        0.00009646       3.54685933      16.86468173       0.00024297      -0.00206562       0.00588140
O        1.97043419       1.97038596       9.99601727       0.00018306      -0.01154142       0.00527873
O        0.00006661       1.57633185      14.90773113      -0.00015529       0.04240829      -0.02291830
10
Lattice="3.940949890606662 0.0 0.0 0.0 3.940949890606662 0.0 0.0 0.0 26.940967945119528" Properties=species:S:1:pos:R:3:forces:R:3 tau=tau59 tau_p=5 tau_q=9 stage=B constraint=xy_fixed_z_free force_label=raw_dft energy=-15499.408598342974 free_energy=-15499.408598342974 stress="0.011307111031181248 0.0 -9.181576151994517e-07 0.0 0.010455060764276157 -0.001301029340737623 -9.181576151994517e-07 -0.001301029340737623 0.00039480777453576425" pbc="T T T"
Sr       0.00003612       0.00009431      10.35465185      -0.00013730       0.00026251       0.01126992
Sr       1.97037695       3.54684090      15.25374422      -0.00016558       0.13857398      -0.00477762
Ti       1.97047269       1.97057450      11.81814069       0.00008382      -0.09554888       0.00109400
Ti       3.94067571       1.57631578      16.72404185       0.00051911       0.00235744      -0.00338691
O        0.00000902       1.97050521      11.87490448      -0.00005476       0.07072102       0.01466763
O        1.97066294       1.57638358      16.85250328      -0.00046486      -0.01101538       0.00149587
O        1.97049401       3.94093312      12.03068325      -0.00005091      -0.13297000      -0.01606245
O        0.00009646       3.54685933      16.86409753       0.00025068      -0.00204326      -0.00795551
O        1.97043419       1.97038596       9.99719768       0.00018075      -0.01178208       0.00583743
O        0.00006661       1.57633185      14.90535513      -0.00016095       0.04144464      -0.00218261
