10
Lattice="3.940949890606662 0.0 0.0 0.0 3.940949890606662 0.0 0.0 0.0 26.940967945119528" Properties=species:S:1:pos:R:3:forces:R:3 tau=tau80 tau_p=8 tau_q=0 stage=A constraint=rigid_scf force_label=raw_dft energy=-15499.786286500579 free_energy=-15499.786286500579 stress="0.011227231318658895 -0.0 -0.014019348626480427 -0.0 0.008034797290610402 0.0 -0.014019348626480427 0.0 -0.006140638130453933" pbc="T T T"
Sr       0.00003626       0.00009419      10.75260867       0.00040161       0.00002803       0.15211675
Sr       3.15266178       3.94093570      14.64522241       0.63923332       0.00002700       1.39324841
Ti       1.97047258       1.97057465      12.38212169      -0.47464364      -0.00031907      -0.38902976
Ti       1.18201068       1.97041071      16.28444791       0.13345517      -0.00009436       0.02987828
O        0.00000906       1.97050529      12.45001441      -1.80139175      -0.00006582      -1.13619388
O        3.15294790       1.97047849      16.39256827       0.00316297       0.00001260      -0.08051461
O        1.97049386       3.94093294      12.44909065       0.17997568       0.00005888      -0.25923662
O        1.18238152       0.00000434      16.37955485       0.05542733       0.00006119      -0.00628840
O        1.97043435       1.97038588      10.49176941      -0.29410926       0.00017741       0.13796514
O        1.18235157       1.97042687      14.44792112       1.55848832       0.00011441       0.15805420
