10
Lattice="3.940949890606662 0.0 0.0 0.0 3.940949890606662 0.0 0.0 0.0 26.940967945119528" Properties=species:S:1:pos:R:3:forces:R:3 tau=tau33 tau_p=3 tau_q=3 stage=A constraint=rigid_scf force_label=raw_dft energy=-15497.667605975894 free_energy=-15497.667605975894 stress="0.01361352296056227 0.0017821439311021356 0.008984172264726635 0.0017821439311021356 0.013268295697247277 0.008983254107111436 0.008984172264726635 0.008983254107111436 -0.017577209385378302" pbc="T T T"
Sr       0.00003626       0.00009419      10.75260867       0.00127861       0.00132283       0.52184601
Sr       1.18218684       1.18227078      14.64522241      -1.26525452      -1.26249238       4.16644799
Ti       1.97047258       1.97057465      12.38212169       1.23577657       1.23532791      -3.75995941
Ti       3.15248562       3.15269568      16.28444791      -0.06093669      -0.06001726      -0.40839557
O        0.00000906       1.97050529      12.45001441       0.88806777      -0.67693212      -0.88146184
O        1.18247295       3.15276346      16.39256827       0.01877831       0.07378475      -0.13416710
O        1.97049386       3.94093294      12.44909065      -0.67660688       0.88462609      -0.87405655
O        3.15285647       1.18228930      16.37955485       0.07670886       0.01688006      -0.09631455
O        1.97043435       1.97038588      10.49176941       0.15290248       0.15285054       0.39061099
O        3.15282651       3.15271183      14.44792112      -0.37071451      -0.36535016       1.07545003
