10
Lattice="3.940949890606662 0.0 0.0 0.0 3.940949890606662 0.0 0.0 0.0 26.940967945119528" Properties=species:S:1:pos:R:3:forces:R:3 tau=tau74 tau_p=7 tau_q=4 stage=A constraint=rigid_scf force_label=raw_dft energy=-15497.07931313595 free_energy=-15497.07931313595 stress="0.011596330679969076 -0.001079753355474555 -0.006148901548990729 -0.001079753355474555 0.017923354806308495 0.006841192390851115 -0.006148901548990729 0.006841192390851115 -0.021775026002070198" pbc="T T T"
Sr       0.00003626       0.00009419      10.75260867       0.00746031       0.00533427       0.60239122
Sr       2.75856679       1.57636577      14.64522241       1.51613017      -0.90610612       5.07563815
Ti       1.97047258       1.97057465      12.38212169      -1.54639462       0.78568850      -5.05461552
Ti       0.78791569       3.54679066      16.28444791      -0.01155120      -0.03983179      -0.58127012
O        0.00000906       1.97050529      12.45001441      -0.43830753      -0.35476339      -0.58133851
O        2.75885291       3.54685845      16.39256827      -0.01930076       0.03963124      -0.11187230
O        1.97049386       3.94093294      12.44909065       0.92323635       0.68847355      -1.03008960
O        0.78828653       1.57638429      16.37955485      -0.12751952       0.00896981      -0.13677729
O        1.97043435       1.97038588      10.49176941      -0.09660689       0.10007145       0.43019698
O        0.78825658       3.54680682      14.44792112      -0.20714607      -0.32746675       1.38773673
