10
Lattice="3.940949890606662 0.0 0.0 0.0 3.940949890606662 0.0 0.0 0.0 26.940967945119528" Properties=species:S:1:pos:R:3:forces:R:3 tau=tau90 tau_p=9 tau_q=0 stage=A constraint=rigid_scf force_label=raw_dft energy=-15500.494066976102 free_energy=-15500.494066976102 stress="0.0095470028828439 -0.0 -0.00705053232711659 -0.0 0.00875738733377237 0.0 -0.00705053232711659 0.0 -0.0008391960602922989" pbc="T T T"
Sr       0.00003626       0.00009419      10.75260867       0.00264567       0.00002648       0.05735797
Sr       3.54675677       3.94093570      14.64522241       0.30360306      -0.00001568       0.34448643
Ti       1.97047258       1.97057465      12.38212169      -0.24023642      -0.00015221      -0.04276824
Ti       1.57610567       1.97041071      16.28444791       0.04978016      -0.00010182      -0.00036047
O        0.00000906       1.97050529      12.45001441      -0.98603015      -0.00010542      -0.29616614
O        3.54704288       1.97047849      16.39256827       0.01070119       0.00001466      -0.02921442
O        1.97049386       3.94093294      12.44909065       0.22501935       0.00001106      -0.03840920
O        1.57647651       0.00000434      16.37955485       0.02927561       0.00007328       0.01131825
O        1.97043435       1.97038588      10.49176941      -0.17922080       0.00013267       0.03997937
O        1.57644656       1.97042687      14.44792112       0.78446234       0.00011673      -0.04622329
