10
Lattice="3.940949890606662 0.0 0.0 0.0 3.940949890606662 0.0 0.0 0.0 26.940967945119528" Properties=species:S:1:pos:R:3:forces:R:3 tau=tau25 tau_p=2 tau_q=5 stage=B constraint=xy_fixed_z_free force_label=raw_dft energy=-15499.217925046916 free_energy=-15499.217925046916 stress="0.013474881160667154 -0.0 0.002804053356819126 -0.0 0.010377935524599402 1.8363152303989035e-06 0.002804053356819126 1.8363152303989035e-06 0.0004067438235333571" pbc="T T T"
Sr       0.00003626       0.00009419      10.46775878      -0.00478431      -0.00005836      -0.19219279
Sr       0.78809185       1.97046076      15.14774121      -0.33606478      -0.00013164       0.23004766
Ti       1.97047258       1.97057465      11.90646717       0.20881703       0.00003291       0.06416419
Ti       2.75839063       3.94088565      16.60674195      -0.00327404       0.00007868       0.18132962
O        0.00000906       1.97050529      12.22894525       0.33018930      -0.00018126      -0.60382486
O        0.78837796       0.00000355      16.78207284       0.00596085      -0.00001157      -0.27951002
O        1.97049386       3.94093294      11.90389846      -0.14076867      -0.00014938       0.27292157
O        2.75876148       1.97047928      16.77220588       0.02930235      -0.00003162      -0.27951697
O        1.97043435       1.97038588      10.08312365       0.02061305       0.00039749       0.17078887
O        2.75873153       3.94090181      14.77636343      -0.10999102       0.00005451       0.43579273
10
Lattice="3.940949890606662 0.0 0.0 0.0 3.940949890606662 0.0 0.0 0.0 26.940967945119528" Properties=species:S:1:pos:R:3:forces:R:3 tau=tau25 tau_p=2 tau_q=5 stage=B constraint=xy_fixed_z_free force_label=raw_dft energy=-15499.235500471585 free_energy=-15499.235500471585 stress="0.013001111831224236 -0.0 0.002772835997902344 -0.0 0.010221848730015496 9.181576151994517e-07 0.002772835997902344 9.181576151994517e-07 -0.0004177617149157505" pbc="T T T"
Sr       0.00003612       0.00009431      10.46380300      -0.00433257      -0.00007636      -0.14285075
Sr       0.78809198       1.97046093      15.15247593      -0.33223846      -0.00011724       0.20652103
Ti       1.97047269       1.97057450      11.90778786       0.20781301      -0.00003008       0.05258986
Ti       2.75839074       3.94088573      16.61047402      -0.00307581       0.00010027       0.15791613
O        0.00000902       1.97050521      12.21651770       0.32226850      -0.00018332      -0.53694276
O        0.78837796       0.00000361      16.77632031       0.00580658      -0.00000103      -0.20151690
O        1.97049401       3.94093312      11.90951591      -0.14138445      -0.00014295       0.25128240
O        2.75876140       1.97047936      16.76645318       0.02927818      -0.00003342      -0.19934328
O        1.97043419       1.97038596      10.08663903       0.02131342       0.00042243       0.09442171
O        2.75873155       3.94090180      14.78533303      -0.10544865       0.00006171       0.31792231
10
Lattice="3.940949890606662 0.0 0.0 0.0 3.940949890606662 0.0 0.0 0.0 26.940967945119528" Properties=species:S:1:pos:R:3:forces:R:3 tau=tau25 tau_p=2 tau_q=5 stage=B constraint=xy_fixed_z_free force_label=raw_dft energy=-15499.249998016625 free_energy=-15499.249998016625 stress="0.012477761990560549 0.0 0.002736109693294366 0.0 0.010085961402965977 1.8363152303989035e-06 0.002736109693294366 1.8363152303989035e-06 -0.0010861804587809513" pbc="T T T"
Sr       0.00003612       0.00009431      10.46012097      -0.00393764      -0.00006299      -0.10089009
Sr       0.78809198       1.97046093      15.15773080      -0.32797429      -0.00012984       0.17558423
Ti       1.97047269       1.97057450      11.90913397       0.20680745       0.00004165       0.01469000
Ti       2.75839074       3.94088573      16.61449990      -0.00296680       0.00009770       0.11664838
O        0.00000902       1.97050521      12.20284717       0.31427211      -0.00018358      -0.46269521
O        0.78837796       0.00000361      16.77111416       0.00559395      -0.00000771      -0.12340138
O        1.97049401       3.94093312      11.91589974      -0.14245146      -0.00014552       0.22833350
O        2.75876140       1.97047936      16.76129886       0.02911260      -0.00005836      -0.12009340
O        1.97043419       1.97038596      10.08913528       0.02210737       0.00038721       0.04467780
O        2.75873155       3.94090180      14.79353911      -0.10056304       0.00006145       0.22714617
10
Lattice="3.940949890606662 0.0 0.0 0.0 3.940949890606662 0.0 0.0 0.0 26.940967945119528" Properties=species:S:1:pos:R:3:forces:R:3 tau=tau25 tau_p=2 tau_q=5 stage=B constraint=xy_fixed_z_free force_label=raw_dft energy=-15499.265254215044 free_energy=-15499.265254215044 stress="0.011712936697099406 0.0 0.0026764294483064017 0.0 0.009918856716999677 1.8363152303989035e-06 0.0026764294483064017 1.8363152303989035e-06 -0.0019318036223796462" pbc="T T T"
Sr       0.00003612       0.00009431      10.45533227      -0.00342137      -0.00006531      -0.04868847
Sr       0.78809198       1.97046093      15.16552796      -0.32091250      -0.00012804       0.12435886
Ti       1.97047269       1.97057450      11.91009569       0.20519794       0.00004011      -0.03662022
Ti       2.75839074       3.94088573      16.61986849      -0.00262098       0.00010567       0.06782570
O        0.00000902       1.97050521      12.18234138       0.30218458      -0.00018229      -0.35694754
O        0.78837796       0.00000361      16.76498804       0.00524839      -0.00001131      -0.02196622
O        1.97049401       3.94093312      11.92587386      -0.14431242      -0.00013858       0.19024621
O        2.75876140       1.97047936      16.75529748       0.02870714      -0.00007173      -0.01850783
O        1.97043419       1.97038596      10.09168097       0.02311396       0.00038232      -0.01783574
O        2.75873155       3.94090180      14.80431382      -0.09318449       0.00006942       0.11813525
10
Lattice="3.940949890606662 0.0 0.0 0.0 3.940949890606662 0.0 0.0 0.0 26.940967945119528" Properties=species:S:1:pos:R:3:forces:R:3 tau=tau25 tau_p=2 tau_q=5 stage=B constraint=xy_fixed_z_free force_label=raw_dft energy=-15499.277951046755 free_energy=-15499.277951046755 stress="0.010590029933710476 0.0 0.002575432110634462 0.0 0.009724207302577392 1.8363152303989035e-06 0.002575432110634462 1.8363152303989035e-06 -0.003023493026851794" pbc="T T T"
Sr       0.00003612       0.00009431      10.44923647      -0.00281536      -0.00006582       0.01141621
Sr       0.78809198       1.97046093      15.17677402      -0.30936542      -0.00012778       0.05137990
Ti       1.97047269       1.97057450      11.90965617       0.20247874       0.00003420      -0.09295515
Ti       2.75839074       3.94088573      16.62706321      -0.00218467       0.00011956       0.01834534
O        0.00000902       1.97050521      12.15158269       0.28445091      -0.00018203      -0.21104052
O        0.78837796       0.00000361      16.75858720       0.00474934      -0.00001183       0.10260193
O        1.97049401       3.94093312      11.94136903      -0.14748208      -0.00012470       0.12627510
O        2.75876140       1.97047936      16.74911365       0.02794429      -0.00009025       0.10568828
O        1.97043419       1.97038596      10.09355686       0.02444631       0.00037795      -0.09572654
O        2.75873155       3.94090180      14.81838066      -0.08222234       0.00007071      -0.01598455
10
Lattice="3.940949890606662 0.0 0.0 0.0 3.940949890606662 0.0 0.0 0.0 26.940967945119528" Properties=species:S:1:pos:R:3:forces:R:3 tau=tau25 tau_p=2 tau_q=5 stage=B constraint=xy_fixed_z_free force_label=raw_dft energy=-15499.283088283917 free_energy=-15499.283088283917 stress="0.00972879809065339 -0.0 0.002479943718653719 -0.0 0.009692071786045413 1.8363152303989035e-06 0.002479943718653719 1.8363152303989035e-06 -0.0036579399389546153" pbc="T T T"
Sr       0.00003612       0.00009431      10.44522102      -0.00246029      -0.00007071       0.03850895
Sr       0.78809198       1.97046093      15.18580406      -0.29853696      -0.00012624       0.00059238
Ti       1.97047269       1.97057450      11.90682161       0.19964230       0.00002571      -0.12035000
Ti       2.75839074       3.94088573      16.63261587      -0.00159537       0.00012881      -0.00349387
O        0.00000902       1.97050521      12.12474217       0.26975269      -0.00017921      -0.09943202
O        0.78837796       0.00000361      16.75686329       0.00433462      -0.00001260       0.17294140
O        1.97049401       3.94093312      11.95533426      -0.15080780      -0.00011107       0.05958660
O        2.75876140       1.97047936      16.74760715       0.02704441      -0.00010104       0.17546494
O        1.97043419       1.97038596      10.09240977       0.02542847       0.00037358      -0.13800165
O        2.75873155       3.94090180      14.82790075      -0.07280207       0.00007302      -0.08581674
10
Lattice="3.940949890606662 0.0 0.0 0.0 3.940949890606662 0.0 0.0 0.0 26.940967945119528" Properties=species:S:1:pos:R:3:forces:R:3 tau=tau25 tau_p=2 tau_q=5 stage=B constraint=xy_fixed_z_free force_label=raw_dft energy=-15499.28632317323 free_energy=-15499.28632317323 stress="0.009303691114816043 0.0 0.0024101637398985607 0.0 0.009806841487945344 1.8363152303989035e-06 0.0024101637398985607 1.8363152303989035e-06 -0.0037451649123985634" pbc="T T T"
Sr       0.00003612       0.00009431      10.44370564      -0.00239293      -0.00007276       0.03367348
Sr       0.78809198       1.97046093      15.19082253      -0.29082416      -0.00012727      -0.01577346
Ti       1.97047269       1.97057450      11.90239870       0.19721107       0.00001543      -0.11915135
Ti       2.75839074       3.94088573      16.63577491      -0.00099373       0.00013267      -0.00030005
O        0.00000902       1.97050521      12.10738359       0.26086953      -0.00017638      -0.04184470
O        0.78837796       0.00000361      16.75984956       0.00406723      -0.00001363       0.17827464
O        1.97049401       3.94093312      11.96439596      -0.15335705      -0.00010233       0.00466552
O        2.75876140       1.97047936      16.75076264       0.02623348      -0.00010259       0.18031944
O        1.97043419       1.97038596      10.08867510       0.02588072       0.00037307      -0.13671918
O        2.75873155       3.94090180      14.83155133      -0.06669390       0.00007379      -0.08314459
10
Lattice="3.940949890606662 0.0 0.0 0.0 3.940949890606662 0.0 0.0 0.0 26.940967945119528" Properties=species:S:1:pos:R:3:forces:R:3 tau=tau25 tau_p=2 tau_q=5 stage=B constraint=xy_fixed_z_free force_label=raw_dft energy=-15499.290394268372 free_energy=-15499.290394268372 stress="0.008987844895187433 -0.0 0.002326611396915411 -0.0 0.010063007462585991 1.8363152303989035e-06 0.002326611396915411 1.8363152303989035e-06 -0.0035303160304418916" pbc="T T T"
Sr       0.00003612       0.00009431      10.44279273      -0.00247649      -0.00007559       0.00649204
Sr       0.78809198       1.97046093      15.19563444      -0.28167926      -0.00012676      -0.01548550
Ti       1.97047269       1.97057450      11.89472657       0.19390669       0.00000514      -0.09856555
Ti       2.75839074       3.94088573      16.63920306      -0.00025891       0.00012881       0.02127948
O        0.00000902       1.97050521      12.08828914       0.25163927      -0.00017175       0.00786603
O        0.78837796       0.00000361      16.76738576       0.00379546      -0.00001260       0.14519508
O        1.97049401       3.94093312      11.97367870      -0.15622434      -0.00009307      -0.06489233
O        2.75876140       1.97047936      16.75851798       0.02514307      -0.00009847       0.14657962
O        1.97043419       1.97038596      10.08145895       0.02617383       0.00037127      -0.10999411
O        2.75873155       3.94090180      14.83363263      -0.06001958       0.00007328      -0.03847502
10
Lattice="3.940949890606662 0.0 0.0 0.0 3.940949890606662 0.0 0.0 0.0 26.940967945119528" Properties=species:S:1:pos:R:3:forces:R:3 tau=tau25 tau_p=2 tau_q=5 stage=B constraint=xy_fixed_z_free force_label=raw_dft energy=-15499.294180324265 free_energy=-15499.294180324265 stress="0.008861139144289909 0.0 0.002231123004934668 0.0 0.010488114438423336 1.8363152303989035e-06 0.002231123004934668 1.8363152303989035e-06 -0.0029013780640302677" pbc="T T T"
Sr       0.00003612       0.00009431      10.44206690      -0.00270120      -0.00008202      -0.05033192
Sr       0.78809198       1.97046093      15.20025041      -0.27071377      -0.00012701       0.01034303
Ti       1.97047269       1.97057450      11.88226383       0.18913960      -0.00000771      -0.05232452
Ti       2.75839074       3.94088573      16.64376494       0.00038747       0.00012547       0.06723049
O        0.00000902       1.97050521      12.06768971       0.24227634      -0.00016558       0.04242757
O        0.78837796       0.00000361      16.78151295       0.00355224      -0.00001260       0.06161263
O        1.97049401       3.94093312      11.98130354      -0.15862447      -0.00008459      -0.14676011
O        2.75876140       1.97047936      16.77293428       0.02374002      -0.00008845       0.06224692
O        1.97043419       1.97038596      10.06916211       0.02617717       0.00037307      -0.05091298
O        2.75873155       3.94090180      14.83437129      -0.05323315       0.00006942       0.05646888
10
Lattice="3.940949890606662 0.0 0.0 0.0 3.940949890606662 0.0 0.0 0.0 26.940967945119528" Properties=species:S:1:pos:R:3:forces:R:3 tau=tau25 tau_p=2 tau_q=5 stage=B constraint=xy_fixed_z_free force_label=raw_dft energy=-15499.295691372412 free_energy=-15499.295691372412 stress="0.009003453574645824 -0.0 0.0022127598526306786 -0.0 0.01063410149924005 1.8363152303989035e-06 0.0022127598526306786 1.8363152303989035e-06 -0.0025240152841832925" pbc="T T T"
Sr       0.00003612       0.00009431      10.44115920      -0.00282667      -0.00008048      -0.07529527
Sr       0.78809198       1.97046093      15.20114438      -0.26776805      -0.00012830       0.03249643
Ti       1.97047269       1.97057450      11.87671332       0.18708761      -0.00001414      -0.02933372
Ti       2.75839074       3.94088573      16.64631551       0.00044686       0.00011621       0.08353540
O        0.00000902       1.97050521      12.06427327       0.24091108      -0.00016327       0.03219844
O        0.78837796       0.00000361      16.78847742       0.00353964      -0.00001131       0.01919071
O        1.97049401       3.94093312      11.97908425      -0.15765696      -0.00008048      -0.15747570
O        2.75876140       1.97047936      16.77999737       0.02329060      -0.00008073       0.01968925
O        1.97043419       1.97038596      10.06347596       0.02586504       0.00037435      -0.02337776
O        2.75873155       3.94090180      14.83467929      -0.05288888       0.00006788       0.09837195
10
Lattice="3.940949890606662 0.0 0.0 0.0 3.940949890606662 0.0 0.0 0.0 26.940967945119528" Properties=species:S:1:pos:R:3:forces:R:3 tau=tau25 tau_p=2 tau_q=5 stage=B constraint=xy_fixed_z_free force_label=raw_dft energy=-15499.297640251723 free_energy=-15499.297640251723 stress="0.009210957195680899 -0.0 0.0022026601188634845 -0.0 0.010738771467372787 1.8363152303989035e-06 0.0022026601188634845 1.8363152303989035e-06 -0.002150325134797116" pbc="T T T"
Sr       0.00003612       0.00009431      10.43873924      -0.00288632      -0.00008253      -0.09772197
Sr       0.78809198       1.97046093      15.20263590      -0.26478454      -0.00012830       0.05695919
Ti       1.97047269       1.97057450      11.87043059       0.18438281      -0.00001594      -0.00820028
Ti       2.75839074       3.94088573      16.65055494       0.00034093       0.00011467       0.09248644
O        0.00000902       1.97050521      12.06194335       0.23989087      -0.00016352       0.01424597
O        0.78837796       0.00000361      16.79613535       0.00357538      -0.00001028      -0.01702662
O        1.97049401       3.94093312      11.97325825      -0.15501952      -0.00007970      -0.15206995
O        2.75876140       1.97047936      16.78776676       0.02285608      -0.00007636      -0.01658721
O        1.97043419       1.97038596      10.05708154       0.02538939       0.00037590      -0.00050908
O        2.75873155       3.94090180      14.83677405      -0.05374505       0.00006608       0.12842352
10
Lattice="3.940949890606662 0.0 0.0 0.0 3.940949890606662 0.0 0.0 0.0 26.940967945119528" Properties=species:S:1:pos:R:3:forces:R:3 tau=tau25 tau_p=2 tau_q=5 stage=B constraint=xy_fixed_z_free force_label=raw_dft energy=-15499.300711464564 free_energy=-15499.300711464564 stress="0.009481813692164737 0.0 0.002185215124174695 0.0 0.010839768805044727 1.8363152303989035e-06 0.002185215124174695 1.8363152303989035e-06 -0.0016958371152733874" pbc="T T T"
Sr       0.00003612       0.00009431      10.43302062      -0.00288246      -0.00008202      -0.12395725
Sr       0.78809198       1.97046093      15.20660985      -0.25934923      -0.00012727       0.08719896
Ti       1.97047269       1.97057450      11.86043684       0.17995254      -0.00002597       0.01653785
Ti       2.75839074       3.94088573      16.65899488       0.00003831       0.00010901       0.09433892
O        0.00000902       1.97050521      12.05679742       0.23718015      -0.00016275      -0.00718752
O        0.78837796       0.00000361      16.80759260       0.00358437      -0.00000848      -0.05403199
O        1.97049401       3.94093312      11.96266656      -0.15001076      -0.00007688      -0.13455766
O        2.75876140       1.97047936      16.79942085       0.02213180      -0.00006942      -0.05371909
O        1.97043419       1.97038596      10.04706491       0.02461214       0.00037821       0.02278075
O        2.75873155       3.94090180      14.84271543      -0.05525686       0.00006556       0.15259729
10
Lattice="3.940949890606662 0.0 0.0 0.0 3.940949890606662 0.0 0.0 0.0 26.940967945119528" Properties=species:S:1:pos:R:3:forces:R:3 tau=tau25 tau_p=2 tau_q=5 stage=B constraint=xy_fixed_z_free force_label=raw_dft energy=-15499.305252364245 free_energy=-15499.305252364245 stress="0.009805005172714945 0.0 0.002150325134797116 0.0 0.010944438773177464 1.8363152303989035e-06 0.002150325134797116 1.8363152303989035e-06 -0.0011596330679969073" pbc="T T T"
Sr       0.00003612       0.00009431      10.42172069      -0.00278862      -0.00008305      -0.15300172
Sr       0.78809198       1.97046093      15.21516451      -0.24979450      -0.00012778       0.12242102
Ti       1.97047269       1.97057450      11.84471989       0.17282004      -0.00003497       0.04363316
Ti       2.75839074       3.94088573      16.67407135      -0.00012470       0.00010439       0.08498370
O        0.00000902       1.97050521      12.04584428       0.23106864      -0.00016044      -0.02810344
O        0.78837796       0.00000361      16.82473659       0.00347073      -0.00000720      -0.08786385
O        1.97049401       3.94093312      11.94565583      -0.14189353      -0.00007251      -0.10389082
O        2.75876140       1.97047936      16.81690199       0.02093084      -0.00006248      -0.08778029
O        1.97043419       1.97038596      10.03144337       0.02336053       0.00037975       0.04470711
O        2.75873155       3.94090180      14.85506145      -0.05704944       0.00006402       0.16489462
10
Lattice="3.940949890606662 0.0 0.0 0.0 3.940949890606662 0.0 0.0 0.0 26.940967945119528" Properties=species:S:1:pos:R:3:forces:R:3 tau=tau25 tau_p=2 tau_q=5 stage=B constraint=xy_fixed_z_free force_label=raw_dft energy=-15499.311504451804 free_energy=-15499.311504451804 stress="0.010158495854566733 -0.0 0.002083299628887556 -0.0 0.011039009007543009 1.8363152303989035e-06 0.002083299628887556 1.8363152303989035e-06 -0.0005701758790388595" pbc="T T T"
Sr       0.00003612       0.00009431      10.40101598      -0.00240681      -0.00008382      -0.17960981
Sr       0.78809198       1.97046093      15.23174617      -0.23395522      -0.00012444       0.15986811
Ti       1.97047269       1.97057450      11.82030292       0.16157224      -0.00004602       0.07118433
Ti       2.75839074       3.94088573      16.69950767      -0.00058415       0.00009590       0.05614287
O        0.00000902       1.97050521      12.02474800       0.21937244      -0.00015889      -0.04307292
O        0.78837796       0.00000361      16.85038556       0.00331749      -0.00000617      -0.11141284
O        1.97049401       3.94093312      11.91943413      -0.12964891      -0.00006711      -0.05818561
O        2.75876140       1.97047936      16.84310978       0.01916423      -0.00005785      -0.11190932
O        1.97043419       1.97038596      10.00724054       0.02153273       0.00038335       0.06089221
O        2.75873155       3.94090180      14.87782923      -0.05836353       0.00006479       0.15610299
10
Lattice="3.940949890606662 0.0 0.0 0.0 3.940949890606662 0.0 0.0 0.0 26.940967945119528" Properties=species:S:1:pos:R:3:forces:R:3 tau=tau25 tau_p=2 tau_q=5 stage=B constraint=xy_fixed_z_free force_label=raw_dft energy=-15499.31911588404 free_energy=-15499.31911588404 stress="0.010471587601349745 0.0 0.0019703662422180233 0.0 0.011095934779685374 1.8363152303989035e-06 0.0019703662422180233 1.8363152303989035e-06 -6.427103306396161e-05" pbc="T T T"
Sr       0.00003612       0.00009431      10.36595560      -0.00161825      -0.00008202      -0.18947051
Sr       0.78809198       1.97046093      15.26106071      -0.21041394      -0.00012213       0.18910027
Ti       1.97047269       1.97057450      11.78500403       0.14710824      -0.00006685       0.07746657
Ti       2.75839074       3.94088573      16.73884023      -0.00256313       0.00008793       0.00844042
O        0.00000902       1.97050521      11.98855600       0.19970530      -0.00015607      -0.04132226
O        0.78837796       0.00000361      16.88637378       0.00307915      -0.00000334      -0.10688410
O        1.97049401       3.94093312      11.88174078      -0.11337331      -0.00005605       0.00141488
O        2.75876140       1.97047936      16.87994409       0.01678622      -0.00005502      -0.10898701
O        1.97043419       1.97038596       9.97208717       0.01927787       0.00038618       0.06124625
O        2.75873155       3.94090180      14.91575757      -0.05798815       0.00006736       0.10899549
10
Lattice="3.940949890606662 0.0 0.0 0.0 3.940949890606662 0.0 0.0 0.0 26.940967945119528" Properties=species:S:1:pos:R:3:forces:R:3 tau=tau25 tau_p=2 tau_q=5 stage=B constraint=xy_fixed_z_free force_label=raw_dft energy=-15499.326114243799 free_energy=-15499.326114243799 stress="0.010590029933710476 0.0 0.0018207065509405129 0.0 0.011106952671067767 1.8363152303989035e-06 0.0018207065509405129 1.8363152303989035e-06 8.35523429831501e-05" pbc="T T T"
Sr       0.00003612       0.00009431      10.31962295      -0.00100170      -0.00007970      -0.16106959
Sr       0.78809198       1.97046093      15.30184163      -0.18367447      -0.00011878       0.19029249
Ti       1.97047269       1.97057450      11.74437053       0.13079639      -0.00007996       0.06220296
Ti       2.75839074       3.94088573      16.78580838      -0.00285161       0.00008408      -0.03644616
O        0.00000902       1.97050521      11.93965233       0.17489158      -0.00015375      -0.01661987
O        0.78837796       0.00000361      16.92649454       0.00264772      -0.00000360      -0.06651675
O        1.97049401       3.94093312      11.84096652      -0.09738850      -0.00004628       0.04273405
O        2.75876140       1.97047936      16.92102826       0.01429610      -0.00005682      -0.06891842
O        1.97043419       1.97038596       9.93157123       0.01710786       0.00038464       0.03230000
O        2.75873155       3.94090180      14.96396359      -0.05482363       0.00007019       0.02204130
10
Lattice="3.940949890606662 0.0 0.0 0.0 3.940949890606662 0.0 0.0 0.0 26.940967945119528" Properties=species:S:1:pos:R:3:forces:R:3 tau=tau25 tau_p=2 tau_q=5 stage=B constraint=xy_fixed_z_free force_label=raw_dft energy=-15499.329808461274 free_energy=-15499.329808461274 stress="0.01049729601457533 0.0 0.0016976734305037863 0.0 0.011089507676378977 1.8363152303989035e-06 0.0016976734305037863 1.8363152303989035e-06 -1.744499468878958e-05" pbc="T T T"
Sr       0.00003612       0.00009431      10.28090264      -0.00037024      -0.00008022      -0.10491566
Sr       0.78809198       1.97046093      15.33818163      -0.16437937      -0.00011930       0.15175859
Ti       1.97047269       1.97057450      11.71496203       0.11926448      -0.00007842       0.03754016
Ti       2.75839074       3.94088573      16.82034608      -0.00246697       0.00009179      -0.06580739
O        0.00000902       1.97050521      11.89889999       0.15601763      -0.00015452       0.01441669
O        0.78837796       0.00000361      16.95497138       0.00222323      -0.00000566      -0.01467071
O        1.97049401       3.94093312      11.81419156      -0.08734295      -0.00004731       0.04561985
O        2.75876140       1.97047936      16.95019271       0.01253336      -0.00006402      -0.01656073
O        1.97043419       1.97038596       9.90166973       0.01556674       0.00038335      -0.00296422
O        2.75873155       3.94090180      15.00100222      -0.05104591       0.00007482      -0.04441684
10
Lattice="3.940949890606662 0.0 0.0 0.0 3.940949890606662 0.0 0.0 0.0 26.940967945119528" Properties=species:S:1:pos:R:3:forces:R:3 tau=tau25 tau_p=2 tau_q=5 stage=B constraint=xy_fixed_z_free force_label=raw_dft energy=-15499.331310665719 free_energy=-15499.331310665719 stress="0.010376099209369005 0.0 0.0016407476583614202 0.0 0.011062881105538193 1.8363152303989035e-06 0.0016407476583614202 1.8363152303989035e-06 -8.722497344394792e-05" pbc="T T T"
Sr       0.00003612       0.00009431      10.26185141      -0.00002571      -0.00007610      -0.05345349
Sr       0.78809198       1.97046093      15.35789312      -0.15596620      -0.00011853       0.09202107
Ti       1.97047269       1.97057450      11.70419194       0.11505969      -0.00008305       0.00696795
Ti       2.75839074       3.94088573      16.83281122      -0.00262510       0.00009642      -0.06349828
O        0.00000902       1.97050521      11.88108050       0.14769882      -0.00015709       0.02974535
O        0.78837796       0.00000361      16.96560443       0.00200597      -0.00000514       0.01729195
O        1.97049401       3.94093312      11.80555642      -0.08362822      -0.00004525       0.03181740
O        2.75876140       1.97047936      16.96105896       0.01177411      -0.00006916       0.01572487
O        1.97043419       1.97038596       9.88968296       0.01499673       0.00038284      -0.01720274
O        2.75873155       3.94090180      15.01558899      -0.04929036       0.00007508      -0.05941459
10
Lattice="3.940949890606662 0.0 0.0 0.0 3.940949890606662 0.0 0.0 0.0 26.940967945119528" Properties=species:S:1:pos:R:3:forces:R:3 tau=tau25 tau_p=2 tau_q=5 stage=B constraint=xy_fixed_z_free force_label=raw_dft energy=-15499.332020474669 free_energy=-15499.332020474669 stress="0.010308155545844244 0.0 0.0016150392451358354 0.0 0.011039009007543009 1.8363152303989035e-06 0.0016150392451358354 1.8363152303989035e-06 -7.620708206155449e-05" pbc="T T T"
Sr       0.00003612       0.00009431      10.25242978       0.00017278      -0.00007405      -0.01108043
Sr       0.78809198       1.97046093      15.36896131      -0.15217125      -0.00012007       0.03407020
Ti       1.97047269       1.97057450      11.70086759       0.11339079      -0.00007970      -0.00790794
Ti       2.75839074       3.94088573      16.83524501      -0.00260761       0.00010259      -0.03868225
O        0.00000902       1.97050521      11.87498293       0.14420341      -0.00016018       0.02735397
O        0.78837796       0.00000361      16.96944026       0.00189619      -0.00000668       0.02621857
O        1.97049401       3.94093312      11.80393070      -0.08233238      -0.00004757       0.01253413
O        2.75876140       1.97047936      16.96491868       0.01139693      -0.00007173       0.02521532
O        1.97043419       1.97038596       9.88511942       0.01472239       0.00038232      -0.02028935
O        2.75873155       3.94090180      15.01942428      -0.04867175       0.00007508      -0.04743248
10
Lattice="3.940949890606662 0.0 0.0 0.0 3.940949890606662 0.0 0.0 0.0 26.940967945119528" Properties=species:S:1:pos:R:3:forces:R:3 tau=tau25 tau_p=2 tau_q=5 stage=B constraint=xy_fixed_z_free force_label=raw_dft energy=-15499.332278574644 free_energy=-15499.332278574644 stress="0.01033110948622423 -0.0 0.0016168755603662344 -0.0 0.011039927165158208 1.8363152303989035e-06 0.0016168755603662344 1.8363152303989035e-06 2.2035782764786838e-05" pbc="T T T"
Sr       0.00003612       0.00009431      10.25212095       0.00021572      -0.00007199       0.00548596
Sr       0.78809198       1.97046093      15.37062778      -0.15224325      -0.00012058       0.00474163
Ti       1.97047269       1.97057450      11.70257349       0.11349672      -0.00007739      -0.00837357
Ti       2.75839074       3.94088573      16.83161928      -0.00245258       0.00010464      -0.01436244
O        0.00000902       1.97050521      11.87793847       0.14471274      -0.00016172       0.01445243
O        0.78837796       0.00000361      16.96852654       0.00188796      -0.00000797       0.01633653
O        1.97049401       3.94093312      11.80604778      -0.08269131      -0.00005065       0.00046254
O        2.75876140       1.97047936      16.96390932       0.01137842      -0.00007122       0.01589893
O        1.97043419       1.97038596       9.88600804       0.01468280       0.00038284      -0.01215078
O        2.75873155       3.94090180      15.01594831      -0.04898749       0.00007430      -0.02249124
