10
Lattice="3.940949890606662 0.0 0.0 0.0 3.940949890606662 0.0 0.0 0.0 26.940967945119528" Properties=species:S:1:pos:R:3:forces:R:3 tau=tau21 tau_p=2 tau_q=1 stage=B constraint=xy_fixed_z_free force_label=raw_dft energy=-15499.600771666563 free_energy=-15499.600771666563 stress="0.011254776047114879 0.000892449201973867 0.01312965389735216 0.000892449201973867 0.00855539265842849 0.005570462251415074 0.01312965389735216 0.005570462251415074 -0.0067282590041815825" pbc="T T T"
Sr       0.00003626       0.00009419      10.75260867       0.00032499      -0.00201806       0.19578719
Sr       0.78809185       0.39408080      14.64522241      -0.70655869      -0.45149908       1.63757648
Ti       1.97047258       1.97057465      12.38212169       0.59846411       0.55395472      -0.63455083
Ti       2.75839063       2.36450570      16.28444791      -0.12454167      -0.03795874      -0.01612493
O        0.00000906       1.97050529      12.45001441       1.64869548      -0.40875758      -1.02774578
O        0.78837796       2.36457348      16.39256827      -0.00163754       0.00592459      -0.08284480
O        1.97049386       3.94093294      12.44909065      -0.27761306       0.67096691      -0.40612760
O        2.75876148       0.39409932      16.37955485      -0.03964050      -0.00844247      -0.01154245
O        1.97043435       1.97038588      10.49176941       0.27113723       0.12779025       0.17387342
O        2.75873153       2.36452185      14.44792112      -1.36863061      -0.44996079       0.17169878
10
Lattice="3.940949890606662 0.0 0.0 0.0 3.940949890606662 0.0 0.0 0.0 26.940967945119528" Properties=species:S:1:pos:R:3:forces:R:3 tau=tau21 tau_p=2 tau_q=1 stage=B constraint=xy_fixed_z_free force_label=raw_dft energy=-15499.681582129571 free_energy=-15499.681582129571 stress="0.010236539251858688 0.0008419505331378973 0.012282194418523065 0.0008419505331378973 0.00776944973981776 0.005310623646313629 0.012282194418523065 0.005310623646313629 -0.007072568109881376" pbc="T T T"
Sr       0.00003612       0.00009431      10.75663835       0.00072428      -0.00166967       0.17564003
Sr       0.78809198       0.39408097      14.67892684      -0.61193181      -0.40960064       1.26621586
Ti       1.97047269       1.97057450      12.36906182       0.55790059       0.50420439      -0.46704500
Ti       2.75839074       2.36450576      16.28411604      -0.11966325      -0.03772683      -0.04891138
O        0.00000902       1.97050521      12.42886169       1.54701966      -0.39996441      -0.86430667
O        0.78837796       2.36457356      16.39086324       0.00038464       0.00652443      -0.01712020
O        1.97049401       3.94093312      12.44073184      -0.31417312       0.66028269      -0.28561279
O        2.75876140       0.39409940      16.37931725      -0.03747666      -0.00704611       0.05361470
O        1.97043419       1.97038596      10.49534800       0.26541318       0.12523766      -0.02916865
O        2.75873155       2.36452183      14.45145490      -1.28819776      -0.44024151       0.21669437
10
Lattice="3.940949890606662 0.0 0.0 0.0 3.940949890606662 0.0 0.0 0.0 26.940967945119528" Properties=species:S:1:pos:R:3:forces:R:3 tau=tau21 tau_p=2 tau_q=1 stage=B constraint=xy_fixed_z_free force_label=raw_dft energy=-15499.750481353518 free_energy=-15499.750481353518 stress="0.009016307781258616 0.0007914518643019274 0.011385154428473201 0.0007914518643019274 0.0068310926570839215 0.005046194253136187 0.011385154428473201 0.005046194253136187 -0.0075013477161795196" pbc="T T T"
Sr       0.00003612       0.00009431      10.76173843       0.00032113      -0.00173678       0.11549987
Sr       0.78809198       0.39408097      14.71600139      -0.52261348      -0.36990358       0.89012029
Ti       1.97047269       1.97057450      12.35534534       0.52314827       0.45700922      -0.35635696
Ti       2.75839074       2.36450576      16.28274798      -0.11286140      -0.03721826       0.00509721
O        0.00000902       1.97050521      12.40367734       1.43119532      -0.38447402      -0.66518295
O        0.78837796       2.36457356      16.39027946       0.00258499       0.00727031       0.04498016
O        1.97049401       3.94093312      12.43231921      -0.34382077       0.64526102      -0.16262793
O        2.75876140       0.39409940      16.38077714      -0.03532593      -0.00530136       0.11306375
O        1.97043419       1.97038596      10.49478153       0.25686786       0.12095498      -0.16607938
O        2.75873155       2.36452183      14.45765214      -1.19949599      -0.43186151       0.18148620
10
Lattice="3.940949890606662 0.0 0.0 0.0 3.940949890606662 0.0 0.0 0.0 26.940967945119528" Properties=species:S:1:pos:R:3:forces:R:3 tau=tau21 tau_p=2 tau_q=1 stage=B constraint=xy_fixed_z_free force_label=raw_dft energy=-15499.81751306019 free_energy=-15499.81751306019 stress="0.007020233125815008 0.0007326897769291624 0.010125442180419553 0.0007326897769291624 0.005283078917857645 0.0046881127832084 0.010125442180419553 0.0046881127832084 -0.008077950698524775" pbc="T T T"
Sr       0.00003612       0.00009431      10.76901141      -0.00057644      -0.00209931      -0.01770050
Sr       0.78809198       0.39408097      14.77161321      -0.40896790      -0.31873786       0.35912218
Ti       1.97047269       1.97057450      12.33356075       0.47906440       0.39510939      -0.23614040
Ti       2.75839074       2.36450576      16.28240575      -0.10240164      -0.03635334       0.09281168
O        0.00000902       1.97050521      12.36363843       1.26335216      -0.35520562      -0.36520361
O        0.78837796       2.36457356      16.39168494       0.00539649       0.00823344       0.14298213
O        1.97049401       3.94093312      12.42123231      -0.37383917       0.62091679      -0.01475762
O        2.75876140       0.39409940      16.38598173      -0.03218970      -0.00268577       0.20167810
O        1.97043419       1.97038596      10.48819018       0.24175029       0.11265520      -0.28939334
O        2.75873155       2.36452183      14.46800124      -1.07158875      -0.42183318       0.12660163
10
Lattice="3.940949890606662 0.0 0.0 0.0 3.940949890606662 0.0 0.0 0.0 26.940967945119528" Properties=species:S:1:pos:R:3:forces:R:3 tau=tau21 tau_p=2 tau_q=1 stage=B constraint=xy_fixed_z_free force_label=raw_dft energy=-15499.847369934796 free_energy=-15499.847369934796 stress="0.005062721090209776 0.0006904545266299876 0.008955709378655452 0.0006904545266299876 0.0038020906845409293 0.004372266563579789 0.008955709378655452 0.004372266563579789 -0.008301981156633442" pbc="T T T"
Sr       0.00003612       0.00009431      10.77358346      -0.00185197      -0.00272974      -0.18410204
Sr       0.78809198       0.39408097      14.82669469      -0.31532806      -0.27619999      -0.12215363
Ti       1.97047269       1.97057450      12.30829828       0.44361994       0.34271828      -0.13974486
Ti       2.75839074       2.36450576      16.28567792      -0.09248155      -0.03561646       0.17666076
O        0.00000902       1.97050521      12.32048284       1.10315675      -0.32042502      -0.07710970
O        0.78837796       2.36457356      16.39777014       0.00755467       0.00896235       0.23559173
O        1.97049401       3.94093312      12.41208008      -0.39020887       0.59526592       0.07519834
O        2.75876140       0.39409940      16.39697748      -0.02913471      -0.00012701       0.27668232
O        1.97043419       1.97038596      10.47368846       0.22371811       0.10220855      -0.32436960
O        2.75873155       2.36452183      14.48006661      -0.94904380      -0.41405714       0.08334694
10
Lattice="3.940949890606662 0.0 0.0 0.0 3.940949890606662 0.0 0.0 0.0 26.940967945119528" Properties=species:S:1:pos:R:3:forces:R:3 tau=tau21 tau_p=2 tau_q=1 stage=B constraint=xy_fixed_z_free force_label=raw_dft energy=-15499.856404250297 free_energy=-15499.856404250297 stress="0.004870826148633091 0.0006794366352475943 0.00863802684379644 0.0006794366352475943 0.00378556384746734 0.004297895796748634 0.00863802684379644 0.004297895796748634 -0.007748332114668173" pbc="T T T"
Sr       0.00003612       0.00009431      10.77057700      -0.00221552      -0.00288812      -0.22817204
Sr       0.78809198       0.39408097      14.84025334      -0.29257611      -0.26522318      -0.20418390
Ti       1.97047269       1.97057450      12.29757867       0.43817486       0.33010599      -0.11350135
Ti       2.75839074       2.36450576      16.29069074      -0.09053857      -0.03601036       0.18762111
O        0.00000902       1.97050521      12.30623931       1.05555972      -0.30810840      -0.01445526
O        0.78837796       2.36457356      16.40473797       0.00788583       0.00916187       0.23590694
O        1.97049401       3.94093312      12.41082051      -0.39186569       0.58840390       0.05749912
O        2.75876140       0.39409940      16.40624249      -0.02818983       0.00070243       0.26756879
O        1.97043419       1.97038596      10.46286560       0.21594567       0.09766284      -0.26790484
O        2.75873155       2.36452183      14.48531433      -0.91218061      -0.41380723       0.07962141
10
Lattice="3.940949890606662 0.0 0.0 0.0 3.940949890606662 0.0 0.0 0.0 26.940967945119528" Properties=species:S:1:pos:R:3:forces:R:3 tau=tau21 tau_p=2 tau_q=1 stage=B constraint=xy_fixed_z_free force_label=raw_dft energy=-15499.869023393505 free_energy=-15499.869023393505 stress="0.005063639247824976 0.0006684187438652008 0.008334116673165423 0.0006684187438652008 0.004194143986231096 0.0042327066060694725 0.008334116673165423 0.0042327066060694725 -0.006689696384343205" pbc="T T T"
Sr       0.00003612       0.00009431      10.76288249      -0.00243381      -0.00297914      -0.25507786
Sr       0.78809198       0.39408097      14.85119748      -0.27234102      -0.25507503      -0.23120002
Ti       1.97047269       1.97057450      12.28392217       0.43616760       0.31956113      -0.07539863
Ti       2.75839074       2.36450576      16.29958338      -0.08973433      -0.03707171       0.18616227
O        0.00000902       1.97050521      12.29080662       1.00640254      -0.29441857       0.02591003
O        0.78837796       2.36457356      16.41639475       0.00798790       0.00930945       0.21082017
O        1.97049401       3.94093312      12.41008704      -0.39155741       0.58123361       0.00614905
O        2.75876140       0.39409940      16.42086999      -0.02711151       0.00158894       0.23012170
O        1.97043419       1.97038596      10.44719771       0.20630146       0.09203958      -0.17891561
O        2.75873155       2.36452183      14.49237833      -0.87368117      -0.41418852       0.08142864
10
Lattice="3.940949890606662 0.0 0.0 0.0 3.940949890606662 0.0 0.0 0.0 26.940967945119528" Properties=species:S:1:pos:R:3:forces:R:3 tau=tau21 tau_p=2 tau_q=1 stage=B constraint=xy_fixed_z_free force_label=raw_dft energy=-15499.885412946065 free_energy=-15499.885412946065 stress="0.005735730622150975 0.0006491374339460123 0.007984298621774431 0.0006491374339460123 0.005173818161648911 0.004162926627314314 0.007984298621774431 0.004162926627314314 -0.0049093887684714685" pbc="T T T"
Sr       0.00003612       0.00009431      10.74747069      -0.00254796      -0.00289018      -0.25846349
Sr       0.78809198       0.39408097      14.86139301      -0.25102760      -0.24423835      -0.20282996
Ti       1.97047269       1.97057450      12.26461539       0.43676486       0.30902115      -0.01890249
Ti       2.75839074       2.36450576      16.31506796      -0.08970733      -0.03891622       0.16640874
O        0.00000902       1.97050521      12.27096509       0.94594048      -0.27686282       0.05087339
O        0.78837796       2.36457356      16.43568603       0.00784341       0.00937424       0.15475393
O        1.97049401       3.94093312      12.40855356      -0.38883102       0.57074839      -0.08207038
O        2.75876140       0.39409940      16.44437183      -0.02563621       0.00261301       0.15684372
O        1.97043419       1.97038596      10.42381130       0.19315233       0.08459572      -0.05491465
O        2.75873155       2.36452183      14.50338512      -0.82595044      -0.41344470       0.08830145
10
Lattice="3.940949890606662 0.0 0.0 0.0 3.940949890606662 0.0 0.0 0.0 26.940967945119528" Properties=species:S:1:pos:R:3:forces:R:3 tau=tau21 tau_p=2 tau_q=1 stage=B constraint=xy_fixed_z_free force_label=raw_dft energy=-15499.90084030409 free_energy=-15499.90084030409 stress="0.007041350750964595 0.0006133292869532338 0.007577554798241075 0.0006133292869532338 0.006908217896760675 0.004081210599561563 0.007577554798241075 0.004081210599561563 -0.0022898850923074323" pbc="T T T"
Sr       0.00003612       0.00009431      10.72008757      -0.00242404      -0.00255491      -0.21684761
Sr       0.78809198       0.39408097      14.87035481      -0.22916834      -0.23318954      -0.10000511
Ti       1.97047269       1.97057450      12.23860121       0.43903206       0.29870897       0.04344856
Ti       2.75839074       2.36450576      16.34018540      -0.09034188      -0.04168632       0.12217522
O        0.00000902       1.97050521      12.24552334       0.87193899      -0.25502567       0.05726464
O        0.78837796       2.36457356      16.46531240       0.00741866       0.00935264       0.06302957
O        1.97049401       3.94093312      12.40362678      -0.38212198       0.55331014      -0.19824594
O        2.75876140       0.39409940      16.47962459      -0.02352071       0.00365714       0.04361542
O        1.97043419       1.97038596      10.39136722       0.17617405       0.07545391       0.09096229
O        2.75873155       2.36452183      14.52063666      -0.76698681      -0.40802610       0.09460323
10
Lattice="3.940949890606662 0.0 0.0 0.0 3.940949890606662 0.0 0.0 0.0 26.940967945119528" Properties=species:S:1:pos:R:3:forces:R:3 tau=tau21 tau_p=2 tau_q=1 stage=B constraint=xy_fixed_z_free force_label=raw_dft energy=-15499.906761773334 free_energy=-15499.906761773334 stress="0.008066932807142383 0.000579357455190854 0.007371887492436398 0.000579357455190854 0.00815415778058633 0.004034384561186391 0.007371887492436398 0.004034384561186391 -0.0006877000537843893" pbc="T T T"
Sr       0.00003612       0.00009431      10.69785565      -0.00202731      -0.00211833      -0.14682490
Sr       0.78809198       0.39408097      14.87320975      -0.21996405      -0.22868600      -0.00609506
Ti       1.97047269       1.97057450      12.22377330       0.44149775       0.29519350       0.06569169
Ti       2.75839074       2.36450576      16.35883663      -0.09086459      -0.04337348       0.07729790
O        0.00000902       1.97050521      12.23133823       0.83052211      -0.24312943       0.05003778
O        0.78837796       2.36457356      16.48529336       0.00695818       0.00927423       0.00668204
O        1.97049401       3.94093312      12.39570597      -0.37534609       0.53769840      -0.24041897
O        2.75876140       0.39409940      16.50260512      -0.02198113       0.00404332      -0.02326051
O        1.97043419       1.97038596      10.37298355       0.16639923       0.07086706       0.13417816
O        2.75873155       2.36452183      14.53371840      -0.73519409      -0.39976977       0.08271187
10
Lattice="3.940949890606662 0.0 0.0 0.0 3.940949890606662 0.0 0.0 0.0 26.940967945119528" Properties=species:S:1:pos:R:3:forces:R:3 tau=tau21 tau_p=2 tau_q=1 stage=B constraint=xy_fixed_z_free force_label=raw_dft energy=-15499.910264014494 free_energy=-15499.910264014494 stress="0.00874177865431398 0.0005499764115044715 0.007290171464683647 0.0005499764115044715 0.008844612307216318 0.004006839832730407 0.007290171464683647 0.004006839832730407 8.263418536795065e-05" pbc="T T T"
Sr       0.00003612       0.00009431      10.68190883      -0.00145370      -0.00172701      -0.07266272
Sr       0.78809198       0.39408097      14.87391530      -0.21739243      -0.22767247       0.05293284
Ti       1.97047269       1.97057450      12.21763616       0.44409071       0.29561747       0.05047281
Ti       2.75839074       2.36450576      16.37109434      -0.09150582      -0.04377483       0.03581855
O        0.00000902       1.97050521      12.22532096       0.81029782      -0.23795945       0.04705633
O        0.78837796       2.36457356      16.49656651       0.00665299       0.00914567      -0.01414492
O        1.97049401       3.94093312      12.38536518      -0.36933048       0.52369540      -0.21800332
O        2.75876140       0.39409940      16.51472250      -0.02076166       0.00404435      -0.04674548
O        1.97043419       1.97038596      10.36580771       0.16150153       0.06926912       0.10715869
O        2.75873155       2.36452183      14.54298248      -0.72209895      -0.39063824       0.05811722
10
Lattice="3.940949890606662 0.0 0.0 0.0 3.940949890606662 0.0 0.0 0.0 26.940967945119528" Properties=species:S:1:pos:R:3:forces:R:3 tau=tau21 tau_p=2 tau_q=1 stage=B constraint=xy_fixed_z_free force_label=raw_dft energy=-15499.913384343881 free_energy=-15499.913384343881 stress="0.009274310071129662 0.0005141682645116929 0.007241509111078075 0.0005141682645116929 0.00922564771752409 0.003972868000968027 0.007241509111078075 0.003972868000968027 0.00045540617713892803" pbc="T T T"
Sr       0.00003612       0.00009431      10.66663470      -0.00069728      -0.00121896       0.01708524
Sr       0.78809198       0.39408097      14.87557339      -0.21647892      -0.22738399       0.08578511
Ti       1.97047269       1.97057450      12.21509535       0.44605760       0.29776177       0.00495889
Ti       2.75839074       2.36450576      16.38199467      -0.09202518      -0.04360514      -0.01023968
O        0.00000902       1.97050521      12.22294189       0.79647017      -0.23535416       0.05186326
O        0.78837796       2.36457356      16.50492788       0.00646195       0.00891659      -0.01310851
O        1.97049401       3.94093312      12.36929348      -0.36192211       0.50560898      -0.13824796
O        2.75876140       0.39409940      16.52247657      -0.01934395       0.00386103      -0.04364808
O        1.97043419       1.97038596      10.36400257       0.15790764       0.06909146       0.02701381
O        2.75873155       2.36452183      14.55237947      -0.71642993      -0.37767809       0.01853791
10
Lattice="3.940949890606662 0.0 0.0 0.0 3.940949890606662 0.0 0.0 0.0 26.940967945119528" Properties=species:S:1:pos:R:3:forces:R:3 tau=tau21 tau_p=2 tau_q=1 stage=B constraint=xy_fixed_z_free force_label=raw_dft energy=-15499.914629672863 free_energy=-15499.914629672863 stress="0.009298182169124846 0.0004994777426685017 0.007227736746850085 0.0004994777426685017 0.009063133819633787 0.003944405114896844 0.007227736746850085 0.003944405114896844 0.00028646517594222896" pbc="T T T"
Sr       0.00003612       0.00009431      10.66279539      -0.00040135      -0.00104490       0.04882371
Sr       0.78809198       0.39408097      14.87847511      -0.21563508      -0.22661446       0.06520343
Ti       1.97047269       1.97057450      12.21590370       0.44457588       0.29859584      -0.02753240
Ti       2.75839074       2.36450576      16.38435625      -0.09196605      -0.04289346      -0.02297615
O        0.00000902       1.97050521      12.22486268       0.79527640      -0.23603601       0.05777706
O        0.78837796       2.36457356      16.50585717       0.00660285       0.00868493       0.00340054
O        1.97049401       3.94093312      12.35901248      -0.35796338       0.49533511      -0.06847285
O        2.75876140       0.39409940      16.52192712      -0.01860347       0.00369365      -0.02260514
O        1.97043419       1.97038596      10.36644706       0.15695479       0.06980159      -0.03038684
O        2.75873155       2.36452183      14.55568300      -0.71884059      -0.36952203      -0.00323136
10
Lattice="3.940949890606662 0.0 0.0 0.0 3.940949890606662 0.0 0.0 0.0 26.940967945119528" Properties=species:S:1:pos:R:3:forces:R:3 tau=tau21 tau_p=2 tau_q=1 stage=B constraint=xy_fixed_z_free force_label=raw_dft energy=-15499.915260840913 free_energy=-15499.915260840913 stress="0.009146686162616938 0.000493968796977305 0.0072075372793156955 0.000493968796977305 0.008756469176157172 0.003911351440749664 0.0072075372793156955 0.003911351440749664 3.672630460797807e-05" pbc="T T T"
Sr       0.00003612       0.00009431      10.66361266      -0.00038387      -0.00104901       0.04700594
Sr       0.78809198       0.39408097      14.88226112      -0.21338382      -0.22474321       0.02728326
Ti       1.97047269       1.97057450      12.21613113       0.44056187       0.29762987      -0.04115411
Ti       2.75839074       2.36450576      16.38375803      -0.09166703      -0.04214809      -0.01691117
O        0.00000902       1.97050521      12.22771400       0.79721887      -0.23721769       0.05613978
O        0.78837796       2.36457356      16.50519681       0.00690136       0.00845867       0.01765319
O        1.97049401       3.94093312      12.35232691      -0.35539459       0.48872429      -0.02161964
O        2.75876140       0.39409940      16.51967762      -0.01815199       0.00359646      -0.00352678
O        1.97043419       1.97038596      10.36803326       0.15619889       0.07030142      -0.05377951
O        2.75873155       2.36452183      14.55660843      -0.72189969      -0.36355322      -0.01109122
10
Lattice="3.940949890606662 0.0 0.0 0.0 3.940949890606662 0.0 0.0 0.0 26.940967945119528" Properties=species:S:1:pos:R:3:forces:R:3 tau=tau21 tau_p=2 tau_q=1 stage=B constraint=xy_fixed_z_free force_label=raw_dft energy=-15499.915655542036 free_energy=-15499.915655542036 stress="0.009025489357410611 0.0004930506393621056 0.0071717291323229165 0.0004930506393621056 0.008519584511435712 0.0038737069785264866 0.0071717291323229165 0.0038737069785264866 -7.345260921595614e-05" pbc="T T T"
Sr       0.00003612       0.00009431      10.66513700      -0.00047797      -0.00113283       0.03135306
Sr       0.78809198       0.39408097      14.88606492      -0.21003625      -0.22200833      -0.00516226
Ti       1.97047269       1.97057450      12.21448025       0.43532762       0.29543801      -0.03752628
Ti       2.75839074       2.36450576      16.38326454      -0.09147239      -0.04158785      -0.00528850
O        0.00000902       1.97050521      12.23015599       0.79849131      -0.23785764       0.04402808
O        0.78837796       2.36457356      16.50568888       0.00723946       0.00823987       0.02267096
O        1.97049401       3.94093312      12.34754853      -0.35305463       0.48354429       0.00190930
O        2.75876140       0.39409940      16.51874220      -0.01777147       0.00355506       0.00592665
O        1.97043419       1.97038596      10.36705044       0.15473567       0.07023405      -0.04843341
O        2.75873155       2.36452183      14.55718722      -0.72298135      -0.35842464      -0.00947760
10
Lattice="3.940949890606662 0.0 0.0 0.0 3.940949890606662 0.0 0.0 0.0 26.940967945119528" Properties=species:S:1:pos:R:3:forces:R:3 tau=tau21 tau_p=2 tau_q=1 stage=B constraint=xy_fixed_z_free force_label=raw_dft energy=-15499.915937451973 free_energy=-15499.915937451973 stress="0.008999780944185026 0.0004921324817469061 0.0071267394091781445 0.0004921324817469061 0.008402978494305382 0.00383422620107291 0.0071267394091781445 0.00383422620107291 -1.4690521843191228e-05" pbc="T T T"
Sr       0.00003612       0.00009431      10.66590973      -0.00061989      -0.00124544       0.01279792
Sr       0.78809198       0.39408097      14.88929528      -0.20636085      -0.21881991      -0.02329959
Ti       1.97047269       1.97057450      12.21109776       0.42977815       0.29274941      -0.02121006
Ti       2.75839074       2.36450576      16.38389620      -0.09147779      -0.04123947       0.00520674
O        0.00000902       1.97050521      12.23216629       0.79861370      -0.23793940       0.02160524
O        0.78837796       2.36457356      16.50795514       0.00755493       0.00802184       0.01808334
O        1.97049401       3.94093312      12.34345553      -0.35041822       0.47864453       0.00860034
O        2.75876140       0.39409940      16.51964181      -0.01738117       0.00353552       0.00581095
O        1.97043419       1.97038596      10.36371357       0.15249958       0.06967998      -0.02445813
O        2.75873155       2.36452183      14.55818863      -0.72218868      -0.35338707      -0.00313675
