10
Lattice="3.940949890606662 0.0 0.0 0.0 3.940949890606662 0.0 0.0 0.0 26.940967945119528" Properties=species:S:1:pos:R:3:forces:R:3 energy=-15498.682993866789 free_energy=-15498.682993866789 stress="0.0069274992066798635 0.0 -9.181576151994517e-07 0.0 0.014710721310725617 0.01763505331513587 -9.181576151994517e-07 0.01763505331513587 -0.01794722690430368" pbc="T T T"
Sr       0.00003626       0.00009419      10.75260867      -0.00007328       0.00410425       0.24045908
Sr       3.94085176       1.18227078      14.64522241       0.00003265      -0.85719654       2.99010582
Ti       1.97047258       1.97057465      12.38212169      -0.00006685       0.51559334      -1.25994545
Ti       1.97020066       3.15269568      16.28444791      -0.00050342      -0.18716191       0.13906994
O        0.00000906       1.97050529      12.45001441      -0.00006042       0.09251806      -0.80974194
O        0.00018798       3.15276346      16.39256827       0.00028591      -0.06510702      -0.07140211
O        1.97049386       3.94093294      12.44909065      -0.00001723       2.13308488      -2.35342971
O        1.97057150       1.18228930      16.37955485       0.00041240       0.01017823      -0.15373011
O        1.97043435       1.97038588      10.49176941       0.00009873       0.30934408       0.22160827
O        1.97054155       3.15271183      14.44792112      -0.00010850      -1.95535764       1.05700622
10
Lattice="3.940949890606662 0.0 0.0 0.0 3.940949890606662 0.0 0.0 0.0 26.940967945119528" Properties=species:S:1:pos:R:3:forces:R:3 energy=-15498.997561409924 free_energy=-15498.997561409924 stress="0.005549344626265486 0.0 -9.181576151994517e-07 0.0 0.012516324610398925 0.015062375677347006 -9.181576151994517e-07 0.015062375677347006 -0.017334815774965647" pbc="T T T"
Sr       0.00003612       0.00009431      10.75755777      -0.00008356       0.00297117       0.19992204
Sr       3.94085191       1.18227095      14.70676421       0.00004191      -0.62473513       2.11654215
Ti       1.97047269       1.97057450      12.35619012      -0.00004448       0.50105787      -0.90804190
Ti       1.97020076       3.15269575      16.28731022      -0.00021700      -0.16685868       0.24089540
O        0.00000902       1.97050521      12.43334858      -0.00008228      -0.05562839      -0.36757699
O        0.00018798       3.15276354      16.39109875       0.00002828      -0.05781588       0.07462216
O        1.97049401       3.94093312      12.40065301      -0.00000360       1.77241362      -1.79540442
O        1.97057142       1.18228938      16.37639077       0.00033373       0.01401071       0.00867233
O        1.97043419       1.97038596      10.49633047       0.00010053       0.28586605      -0.14691181
O        1.97054157       3.15271182      14.46967605      -0.00007353      -1.67128108       0.57728157
10
Lattice="3.940949890606662 0.0 0.0 0.0 3.940949890606662 0.0 0.0 0.0 26.940967945119528" Properties=species:S:1:pos:R:3:forces:R:3 energy=-15499.233297437948 free_energy=-15499.233297437948 stress="0.0038773796089872845 0.0 -9.181576151994517e-07 0.0 0.009793069123717352 0.012685265611595624 -9.181576151994517e-07 0.012685265611595624 -0.016633343356953267" pbc="T T T"
Sr       0.00003612       0.00009431      10.76389742      -0.00009616       0.00113000       0.07159340
Sr       3.94085191       1.18227095      14.77445988       0.00007353      -0.43764007       1.24184925
Ti       1.97047269       1.97057450      12.32717702      -0.00001440       0.48199134      -0.59264751
Ti       1.97020076       3.15269575      16.29475291       0.00007919      -0.14753556       0.19762424
O        0.00000902       1.97050521      12.42121366      -0.00008690      -0.16461745      -0.04205631
O        0.00018798       3.15276354      16.39325517      -0.00020543      -0.05046690       0.25597389
O        1.97049401       3.94093312      12.34346698       0.00000026       1.44419147      -1.21892067
O        1.97057142       1.18228938      16.37645196       0.00022034       0.01601309       0.21222400
O        1.97043419       1.97038596      10.49219059       0.00009770       0.26090578      -0.43430792
O        1.97054157       3.15271182      14.48845437      -0.00006839      -1.40397196       0.30866762
10
Lattice="3.940949890606662 0.0 0.0 0.0 3.940949890606662 0.0 0.0 0.0 26.940967945119528" Properties=species:S:1:pos:R:3:forces:R:3 energy=-15499.419189421742 free_energy=-15499.419189421742 stress="0.0010200731104865908 0.0 -9.181576151994517e-07 0.0 0.005289506021164041 0.009722370987346995 -9.181576151994517e-07 0.009722370987346995 -0.015798738084736964" pbc="T T T"
Sr       0.00003612       0.00009431      10.77114393      -0.00011827      -0.00234433      -0.24705627
Sr       3.94085191       1.18227095      14.87600337       0.00013473      -0.24628289       0.08559742
Ti       1.97047269       1.97057450      12.28084236       0.00002288       0.45254347      -0.26595337
Ti       1.97020076       3.15269575      16.30821939       0.00048954      -0.11943083       0.16629972
O        0.00000902       1.97050521      12.41074579      -0.00008536      -0.26002775       0.22955889
O        0.00018798       3.15276354      16.40628386      -0.00048645      -0.04091834       0.50114400
O        1.97049401       3.94093312      12.25013551       0.00002545       1.04394810      -0.38001265
O        1.97057142       1.18228938      16.38611719       0.00000771       0.01714386       0.49608304
O        1.97043419       1.97038596      10.47017923       0.00008742       0.22208881      -0.63927266
O        1.97054157       3.15271182      14.51564933      -0.00007790      -1.06672011       0.05361161
10
Lattice="3.940949890606662 0.0 0.0 0.0 3.940949890606662 0.0 0.0 0.0 26.940967945119528" Properties=species:S:1:pos:R:3:forces:R:3 energy=-15499.465498843261 free_energy=-15499.465498843261 stress="0.00038562619838376967 0.0 -0.0 0.0 0.003910433283134464 0.008644453947102837 -0.0 0.008644453947102837 -0.014526171630070524" pbc="T T T"
Sr       0.00003612       0.00009431      10.76706877      -0.00012933      -0.00386874      -0.41473899
Sr       3.94085191       1.18227095      14.91702705       0.00014501      -0.18968828      -0.27973654
Ti       1.97047269       1.97057450      12.25607772       0.00002751       0.44171398      -0.22178104
Ti       1.97020076       3.15269575      16.31734084       0.00060370      -0.10894587       0.22207184
O        0.00000902       1.97050521      12.41168430      -0.00007071      -0.28294785       0.22468331
O        0.00018798       3.15276354      16.42385830      -0.00054379      -0.03725040       0.52490331
O        1.97049401       3.94093312      12.20521679       0.00003600       0.89973133      -0.04952510
O        1.97057142       1.18228938      16.40232100      -0.00005914       0.01698908       0.53607372
O        1.97043419       1.97038596      10.44657279       0.00007585       0.20309067      -0.52980332
O        1.97054157       3.15271182      14.52815241      -0.00008536      -0.93882366      -0.01214718
10
Lattice="3.940949890606662 0.0 0.0 0.0 3.940949890606662 0.0 0.0 0.0 26.940967945119528" Properties=species:S:1:pos:R:3:forces:R:3 energy=-15499.516961420599 free_energy=-15499.516961420599 stress="0.0010678173064769623 0.0 -9.181576151994517e-07 0.0 0.003652430993263419 0.0076473347769962325 -9.181576151994517e-07 0.0076473347769962325 -0.011815770350001743" pbc="T T T"
Sr       0.00003612       0.00009431      10.74917801      -0.00014475      -0.00496480      -0.53557313
Sr       3.94085191       1.18227095      14.95362336       0.00012598      -0.14418232      -0.48158433
Ti       1.97047269       1.97057450      12.22157323       0.00003497       0.43126836      -0.14153666
Ti       1.97020076       3.15269575      16.33435660       0.00062992      -0.10129452       0.27952494
O        0.00000902       1.97050521      12.41776668      -0.00005759      -0.29811144       0.07475868
O        0.00018798       3.15276354      16.45801567      -0.00050702      -0.03371796       0.43525923
O        1.97049401       3.94093312      12.15558752       0.00004474       0.76722515       0.20122096
O        1.97057142       1.18228938      16.43538490      -0.00006711       0.01599020       0.46003643
O        1.97043419       1.97038596      10.40760652       0.00007353       0.18078583      -0.31427854
O        1.97054157       3.15271182      14.54222747      -0.00013293      -0.81299876       0.02217217
10
Lattice="3.940949890606662 0.0 0.0 0.0 3.940949890606662 0.0 0.0 0.0 26.940967945119528" Properties=species:S:1:pos:R:3:forces:R:3 energy=-15499.569992462102 free_energy=-15499.569992462102 stress="0.0036248862648074354 0.0 -9.181576151994517e-07 0.0 0.005027831100832198 0.0068310926570839215 -9.181576151994517e-07 0.0068310926570839215 -0.007597754265775463" pbc="T T T"
Sr       0.00003612       0.00009431      10.71158136      -0.00014424      -0.00512961      -0.53822934
Sr       3.94085191       1.18227095      14.97833340       0.00007071      -0.11354172      -0.44279744
Ti       1.97047269       1.97057450      12.17933489       0.00001311       0.42050289      -0.00345968
Ti       1.97020076       3.15269575      16.36220581       0.00055176      -0.09690411       0.32329051
O        0.00000902       1.97050521      12.42577226      -0.00003548      -0.30437696      -0.20644570
O        0.00018798       3.15276354      16.50949848      -0.00036073      -0.03038427       0.21692449
O        1.97049401       3.94093312      12.10764991       0.00004371       0.65832942       0.30092988
O        1.97057142       1.18228938      16.48650917      -0.00000926       0.01450282       0.24767720
O        1.97043419       1.97038596      10.35501275       0.00005734       0.15737388      -0.04097644
O        1.97054157       3.15271182      14.55942194      -0.00018718      -0.70037287       0.14308678
10
Lattice="3.940949890606662 0.0 0.0 0.0 3.940949890606662 0.0 0.0 0.0 26.940967945119528" Properties=species:S:1:pos:R:3:forces:R:3 energy=-15499.60345089942 free_energy=-15499.60345089942 stress="0.006662151655887221 0.0 -1.8363152303989035e-06 0.0 0.00729935304083564 0.006525346171222503 -1.8363152303989035e-06 0.006525346171222503 -0.004049993240644782" pbc="T T T"
Sr       0.00003612       0.00009431      10.67058807      -0.00013421      -0.00416853      -0.39931932
Sr       3.94085191       1.18227095      14.97891342       0.00001466      -0.10753125      -0.22062765
Ti       1.97047269       1.97057450      12.15282427      -0.00001028       0.41647886       0.06945630
Ti       1.97020076       3.15269575      16.38980468       0.00036767      -0.09767724       0.30058664
O        0.00000902       1.97050521      12.42589514      -0.00002134      -0.30088515      -0.40798111
O        0.00018798       3.15276354      16.55064447      -0.00018872      -0.02829756       0.02402336
O        1.97049401       3.94093312      12.08639920       0.00004319       0.61185262       0.22164632
O        1.97057142       1.18228938      16.52839211       0.00008896       0.01321753       0.04889904
O        1.97043419       1.97038596      10.31742225       0.00005656       0.14380797       0.12545904
O        1.97054157       3.15271182      14.57443635      -0.00021649      -0.64679700       0.23785738
10
Lattice="3.940949890606662 0.0 0.0 0.0 3.940949890606662 0.0 0.0 0.0 26.940967945119528" Properties=species:S:1:pos:R:3:forces:R:3 energy=-15499.62501905044 free_energy=-15499.62501905044 stress="0.009149440635462535 0.0 -1.8363152303989035e-06 0.0 0.009503849474929525 0.00646291145338894 -1.8363152303989035e-06 0.00646291145338894 -0.0016251389789030295" pbc="T T T"
Sr       0.00003612       0.00009431      10.63234358      -0.00012418      -0.00288581      -0.19546889
Sr       3.94085191       1.18227095      14.96910985      -0.00002185      -0.11204996       0.02110079
Ti       1.97047269       1.97057450      12.13944914      -0.00002134       0.41727513       0.06713356
Ti       1.97020076       3.15269575      16.41601023       0.00021674      -0.10064660       0.20237050
O        0.00000902       1.97050521      12.41522085      -0.00002288      -0.29327982      -0.47575307
O        0.00018798       3.15276354      16.57839251      -0.00006402      -0.02655692      -0.08156053
O        1.97049401       3.94093312      12.08181764       0.00003291       0.59445088       0.09429521
O        1.97057142       1.18228938      16.55743226       0.00017432       0.01196129      -0.06657872
O        1.97043419       1.97038596      10.29568973       0.00005656       0.13597845       0.16873893
O        1.97054157       3.15271182      14.58985420      -0.00022651      -0.62424662       0.26572197
10
Lattice="3.940949890606662 0.0 0.0 0.0 3.940949890606662 0.0 0.0 0.0 26.940967945119528" Properties=species:S:1:pos:R:3:forces:R:3 energy=-15499.639225569728 free_energy=-15499.639225569728 stress="0.010550549156256899 0.0 -1.8363152303989035e-06 0.0 0.01100320086055023 0.006423430675935364 -1.8363152303989035e-06 0.006423430675935364 -0.00038470804076857026" pbc="T T T"
Sr       0.00003612       0.00009431      10.60197397      -0.00011441      -0.00184759      -0.00802364
Sr       3.94085191       1.18227095      14.96187266      -0.00003600      -0.11613853       0.17875158
Ti       1.97047269       1.97057450      12.13317358      -0.00002263       0.41822952       0.01101486
Ti       1.97020076       3.15269575      16.43870324       0.00010979      -0.10269680       0.08082726
O        0.00000902       1.97050521      12.39520452      -0.00002494      -0.28592338      -0.42178022
O        0.00018798       3.15276354      16.59441262      -0.00000977      -0.02480189      -0.09853881
O        1.97049401       3.94093312      12.08265116       0.00002520       0.58293594       0.01307483
O        1.97057142       1.18228938      16.57475737       0.00022703       0.01075390      -0.09176267
O        1.97043419       1.97038596      10.28576236       0.00006068       0.13029965       0.11732304
O        1.97054157       3.15271182      14.60680849      -0.00021520      -0.61081081       0.21911378
10
Lattice="3.940949890606662 0.0 0.0 0.0 3.940949890606662 0.0 0.0 0.0 26.940967945119528" Properties=species:S:1:pos:R:3:forces:R:3 energy=-15499.65010291226 free_energy=-15499.65010291226 stress="0.011009627963856626 0.0 -1.8363152303989035e-06 0.0 0.011723036430866599 0.006272852827042654 -1.8363152303989035e-06 0.006272852827042654 3.672630460797807e-05" pbc="T T T"
Sr       0.00003612       0.00009431      10.57880487      -0.00010953      -0.00117114       0.12737245
Sr       3.94085191       1.18227095      14.96402510      -0.00004165      -0.11407445       0.23069352
Ti       1.97047269       1.97057450      12.12700950      -0.00002211       0.41363239      -0.06173476
Ti       1.97020076       3.15269575      16.45875806       0.00008073      -0.10215250      -0.01754444
O        0.00000902       1.97050521      12.36797069      -0.00003394      -0.27959050      -0.29452475
O        0.00018798       3.15276354      16.60462323      -0.00001877      -0.02268227      -0.06090841
O        1.97049401       3.94093312      12.08134134       0.00002340       0.56397842      -0.00138942
O        1.97057142       1.18228938      16.58607514       0.00025120       0.00979770      -0.05883404
O        1.97043419       1.97038596      10.28037998       0.00006608       0.12411101       0.01459872
O        1.97054157       3.15271182      14.62633204      -0.00019540      -0.59184866       0.12227112
10
Lattice="3.940949890606662 0.0 0.0 0.0 3.940949890606662 0.0 0.0 0.0 26.940967945119528" Properties=species:S:1:pos:R:3:forces:R:3 energy=-15499.658368642222 free_energy=-15499.658368642222 stress="0.010745198570679184 0.0 -1.8363152303989035e-06 0.0 0.011687228283873821 0.005979960547794028 -1.8363152303989035e-06 0.005979960547794028 -6.427103306396161e-05" pbc="T T T"
Sr       0.00003612       0.00009431      10.56356159      -0.00011030      -0.00116085       0.18172120
Sr       3.94085191       1.18227095      14.97780434      -0.00003934      -0.10505836       0.17972345
Ti       1.97047269       1.97057450      12.11659355      -0.00001851       0.40103784      -0.11090633
Ti       1.97020076       3.15269575      16.47557200       0.00012084      -0.09857712      -0.06282131
O        0.00000902       1.97050521      12.33813834      -0.00004397      -0.27360471      -0.15285260
O        0.00018798       3.15276354      16.61310845      -0.00007996      -0.02029603      -0.00293183
O        1.97049401       3.94093312      12.07471899       0.00002083       0.53502728       0.03917436
O        1.97057142       1.18228938      16.59532726       0.00025094       0.00918784      -0.00116317
O        1.97043419       1.97038596      10.27391434       0.00007379       0.11648949      -0.08598257
O        1.97054157       3.15271182      14.64658111      -0.00017432      -0.56304511       0.01603880
10
Lattice="3.940949890606662 0.0 0.0 0.0 3.940949890606662 0.0 0.0 0.0 26.940967945119528" Properties=species:S:1:pos:R:3:forces:R:3 energy=-15499.663787517205 free_energy=-15499.663787517205 stress="0.01016308664264273 0.0 -1.8363152303989035e-06 0.0 0.01120519553589411 0.005631060654018237 -1.8363152303989035e-06 0.005631060654018237 -0.0002855470183270295" pbc="T T T"
Sr       0.00003612       0.00009431      10.55599780      -0.00011210      -0.00157557       0.15646705
Sr       3.94085191       1.18227095      14.99810837      -0.00003728      -0.09334159       0.07481113
Ti       1.97047269       1.97057450      12.10180565      -0.00000848       0.38306069      -0.11530138
Ti       1.97020076       3.15269575      16.48804445       0.00018281      -0.09345009      -0.05516430
O        0.00000902       1.97050521      12.31258435      -0.00004757      -0.26734613      -0.05544481
O        0.00018798       3.15276354      16.62222216      -0.00014450      -0.01814710       0.03882006
O        1.97049401       3.94093312      12.06487771       0.00002005       0.50430492       0.09200461
O        1.97057142       1.18228938      16.60489089       0.00023551       0.00898472       0.04337888
O        1.97043419       1.97038596      10.26342113       0.00007508       0.10847304      -0.12908712
O        1.97054157       3.15271182      14.66336745      -0.00016404      -0.53096263      -0.05048412
10
Lattice="3.940949890606662 0.0 0.0 0.0 3.940949890606662 0.0 0.0 0.0 26.940967945119528" Properties=species:S:1:pos:R:3:forces:R:3 energy=-15499.66685315171 free_energy=-15499.66685315171 stress="0.009705844150273405 0.0 -1.8363152303989035e-06 0.0 0.010778252244826363 0.005346431793306407 -1.8363152303989035e-06 0.005346431793306407 -0.0002745291269446361" pbc="T T T"
Sr       0.00003612       0.00009431      10.55293773      -0.00011519      -0.00209339       0.09590241
Sr       3.94085191       1.18227095      15.01584781      -0.00003985      -0.08391772      -0.01196617
Ti       1.97047269       1.97057450      12.08632909      -0.00000103       0.36583250      -0.08814950
Ti       1.97020076       3.15269575      16.49672632       0.00022729      -0.08922191      -0.02644200
O        0.00000902       1.97050521      12.29439689      -0.00004859      -0.26133824      -0.01613753
O        0.00018798       3.15276354      16.63200846      -0.00018152      -0.01659159       0.04726665
O        1.97049401       3.94093312      12.05720697       0.00001928       0.48207053       0.11369135
O        1.97057142       1.18228938      16.61505228       0.00022163       0.00895824       0.05436341
O        1.97043419       1.97038596      10.25035310       0.00007970       0.10165319      -0.10661208
O        1.97054157       3.15271182      14.67446132      -0.00016147      -0.50535187      -0.06191653
10
Lattice="3.940949890606662 0.0 0.0 0.0 3.940949890606662 0.0 0.0 0.0 26.940967945119528" Properties=species:S:1:pos:R:3:forces:R:3 energy=-15499.66859944227 free_energy=-15499.66859944227 stress="0.009489158953086333 0.0 -1.8363152303989035e-06 0.0 0.010627674395933652 0.005168309215957714 -1.8363152303989035e-06 0.005168309215957714 -4.0398935068775876e-05" pbc="T T T"
Sr       0.00003612       0.00009431      10.55163784      -0.00011776      -0.00255645       0.04215324
Sr       3.94085191       1.18227095      15.02670324      -0.00004397      -0.07835745      -0.05098806
Ti       1.97047269       1.97057450      12.07328571      -0.00000000       0.35244682      -0.05018973
Ti       1.97020076       3.15269575      16.50293519       0.00023757      -0.08686498      -0.00179077
O        0.00000902       1.97050521      12.28142452      -0.00004474      -0.25597749      -0.00845764
O        0.00018798       3.15276354      16.64095202      -0.00018769      -0.01554977       0.03231157
O        1.97049401       3.94093312      12.05486986       0.00001928       0.47111557       0.09392626
O        1.97057142       1.18228938      16.62449514       0.00022060       0.00896826       0.04008324
O        1.97043419       1.97038596      10.23804009       0.00008330       0.09656781      -0.05439220
O        1.97054157       3.15271182      14.68097635      -0.00016686      -0.48979232      -0.04265563
10
Lattice="3.940949890606662 0.0 0.0 0.0 3.940949890606662 0.0 0.0 0.0 26.940967945119528" Properties=species:S:1:pos:R:3:forces:R:3 energy=-15499.669505989523 free_energy=-15499.669505989523 stress="0.009443251072326362 0.0 -1.8363152303989035e-06 0.0 0.010714899369377601 0.0051104652862001484 -1.8363152303989035e-06 0.0051104652862001484 0.00021393072434147225" pbc="T T T"
Sr       0.00003612       0.00009431      10.55219304      -0.00011878      -0.00285161       0.01081175
Sr       3.94085191       1.18227095      15.02945127      -0.00005065      -0.07680091      -0.04604666
Ti       1.97047269       1.97057450      12.06580545       0.00000694       0.34483996      -0.01475196
Ti       1.97020076       3.15269575      16.50600133       0.00023191      -0.08650142       0.00931896
O        0.00000902       1.97050521      12.27349825      -0.00004577      -0.25226019      -0.01030292
O        0.00018798       3.15276354      16.64615229      -0.00017998      -0.01501293       0.01119098
O        1.97049401       3.94093312      12.05828521       0.00001774       0.47155575       0.04767777
O        1.97057142       1.18228938      16.63027226       0.00022497       0.00900812       0.01763854
O        1.97043419       1.97038596      10.23053057       0.00008433       0.09389977      -0.00907342
O        1.97054157       3.15271182      14.68313030      -0.00017072      -0.48587679      -0.01646303
10
Lattice="3.940949890606662 0.0 0.0 0.0 3.940949890606662 0.0 0.0 0.0 26.940967945119528" Properties=species:S:1:pos:R:3:forces:R:3 energy=-15499.669825859342 free_energy=-15499.669825859342 stress="0.009449678175632756 0.0 -1.8363152303989035e-06 0.0 0.010860886430194314 0.005146273433192927 -1.8363152303989035e-06 0.005146273433192927 0.0003039101706310185" pbc="T T T"
Sr       0.00003612       0.00009431      10.55423805      -0.00012110      -0.00293414       0.00324962
Sr       3.94085191       1.18227095      15.02647546      -0.00005476      -0.07802218      -0.02256554
Ti       1.97047269       1.97057450      12.06503460       0.00000720       0.34349707       0.00214276
Ti       1.97020076       3.15269575      16.50574772       0.00022471      -0.08735632       0.00690804
O        0.00000902       1.97050521      12.27113373      -0.00004731      -0.25105948      -0.00909039
O        0.00018798       3.15276354      16.64635147      -0.00016969      -0.01496716      -0.00042680
O        1.97049401       3.94093312      12.06390126       0.00001620       0.47868619       0.00876386
O        1.97057142       1.18228938      16.63089642       0.00023191       0.00905414       0.00401529
O        1.97043419       1.97038596      10.22960939       0.00008536       0.09372288       0.00879986
O        1.97054157       3.15271182      14.68193186      -0.00017278      -0.49062125      -0.00179643
