10
Lattice="3.940949890606662 0.0 0.0 0.0 3.940949890606662 0.0 0.0 0.0 26.940967945119528" Properties=species:S:1:pos:R:3:forces:R:3 tau=tau28 tau_p=2 tau_q=8 stage=A constraint=rigid_scf force_label=raw_dft energy=-15499.052275611579 free_energy=-15499.052275611579 stress="0.010964638240711852 -0.0016471747616678164 0.010558812574793694 -0.0016471747616678164 0.010650628336313639 -0.010550549156256899 0.010558812574793694 -0.010550549156256899 -0.00947814106170394" pbc="T T T"
Sr       0.00003626       0.00009419      10.75260867       0.00025017      -0.00032242       0.29706937
Sr       0.78809185       3.15274573      14.64522241      -0.86100383       0.85999030       2.35237659
Ti       1.97047258       1.97057465      12.38212169       0.88851257      -0.88845498      -1.36716637
Ti       2.75839063       1.18222073      16.28444791      -0.09428672       0.09223987      -0.10952231
O        0.00000906       1.97050529      12.45001441       1.23104779       0.52320767      -0.83298446
O        0.78837796       1.18228851      16.39256827       0.00270660      -0.00722943      -0.08648240
O        1.97049386       3.94093294      12.44909065      -0.52363550      -1.22772027      -0.82759568
O        2.75876148       3.15276425      16.37955485       0.00831238       0.00001491      -0.04884942
O        1.97043435       1.97038588      10.49176941       0.21387259      -0.21319382       0.25194060
O        2.75873153       1.18223689      14.44792112      -0.86577605       0.86146791       0.37121407
