10
Lattice="3.940949890606662 0.0 0.0 0.0 3.940949890606662 0.0 0.0 0.0 26.940967945119528" Properties=species:S:1:pos:R:3:forces:R:3 tau=tau97 tau_p=9 tau_q=7 stage=A constraint=rigid_scf force_label=raw_dft energy=-15498.577899420592 free_energy=-15498.577899420592 stress="0.007484820879105931 0.001264303036129645 -0.003253950588266857 0.001264303036129645 0.014750202088179192 -0.016204563750655123 -0.003253950588266857 -0.016204563750655123 -0.016872982494520326" pbc="T T T"
Sr       0.00003626       0.00009419      10.75260867       0.00330181      -0.00584103       0.28953604
Sr       3.54675677       2.75865074      14.64522241       0.53039750       0.90671213       3.06619684
Ti       1.97047258       1.97057465      12.38212169      -0.75433467      -0.62003695      -1.57231494
Ti       1.57610567       0.78812574      16.28444791       0.01562279       0.16999363       0.03792634
O        0.00000906       1.97050529      12.45001441      -0.31596570       0.04357043      -0.78164441
O        3.54704288       0.78819352      16.39256827       0.00307530       0.04869747      -0.06895750
O        1.97049386       3.94093294      12.44909065       0.60617074      -1.94040616      -2.07051246
O        1.57647651       2.75866926      16.37955485      -0.04873449      -0.01117350      -0.14803846
O        1.97043435       1.97038588      10.49176941      -0.08878765      -0.28377728       0.25482589
O        1.57644656       0.78814190      14.44792112       0.04925462       1.69226102       0.99298267
