10
Lattice="3.940949890606662 0.0 0.0 0.0 3.940949890606662 0.0 0.0 0.0 26.940967945119528" Properties=species:S:1:pos:R:3:forces:R:3 tau=tau39 tau_p=3 tau_q=9 stage=B constraint=xy_fixed_z_free force_label=raw_dft energy=-15498.575316243923 free_energy=-15498.575316243923 stress="0.015082575144881392 -0.0012633848785144456 0.016220172430113516 -0.0012633848785144456 0.007185501496550909 -0.003253032430651657 0.016220172430113516 -0.003253032430651657 -0.01686288276075313" pbc="T T T"
Sr       0.00003626       0.00009419      10.75260867       0.00581326       0.00339154       0.28888864
Sr       1.18218684       3.54684071      14.64522241      -0.90404358       0.52885175       3.06247157
Ti       1.97047258       1.97057465      12.38212169       0.62038328      -0.75508081      -1.57434483
Ti       3.15248562       1.57631572      16.28444791      -0.17208728       0.01534357       0.03858532
O        0.00000906       1.97050529      12.45001441       1.94630710       0.60690684      -2.07801083
O        1.18247295       1.57638350      16.39256827       0.01368315      -0.04768111      -0.18387399
O        1.97049386       3.94093294      12.44909065      -0.04582091      -0.31488120      -0.77356704
O        3.15285647       3.54685924      16.37955485      -0.04894866       0.00426340      -0.03133841
O        1.97043435       1.97038588      10.49176941       0.28432570      -0.08839993       0.25449679
O        3.15282651       1.57633188      14.44792112      -1.69961232       0.04728593       0.99669277
10
Lattice="3.940949890606662 0.0 0.0 0.0 3.940949890606662 0.0 0.0 0.0 26.940967945119528" Properties=species:S:1:pos:R:3:forces:R:3 tau=tau39 tau_p=3 tau_q=9 stage=B constraint=xy_fixed_z_free force_label=raw_dft energy=-15498.889046220664 free_energy=-15498.889046220664 stress="0.012645784834142047 -0.0010705717793225607 0.013913760500732491 -0.0010705717793225607 0.005856927427357302 -0.0031804979790509007 0.013913760500732491 -0.0031804979790509007 -0.017106194528780986" pbc="T T T"
Sr       0.00003612       0.00009431      10.75855454       0.00501314       0.00360263       0.26726412
Sr       1.18218697       3.54684090      14.70825362      -0.67436591       0.47388311       2.18311675
Ti       1.97047269       1.97057450      12.34971924       0.56321609      -0.62425228      -0.97101285
Ti       3.15248573       1.57631578      16.28524207      -0.15314673       0.01493657       0.18793196
O        0.00000902       1.97050521      12.40724543       1.64763233       0.53140897      -1.65192864
O        1.18247295       1.57638358      16.38878389       0.01639207      -0.04455902      -0.03722263
O        1.97049401       3.94093312      12.43316930      -0.15702858      -0.35294073      -0.42961051
O        3.15285639       3.54685933      16.37890981      -0.04339739       0.00274208       0.10334626
O        1.97043419       1.97038596      10.49700737       0.26261402      -0.08535291      -0.22773521
O        3.15282654       1.57633185      14.46843470      -1.46692928       0.08053184       0.57585075
10
Lattice="3.940949890606662 0.0 0.0 0.0 3.940949890606662 0.0 0.0 0.0 26.940967945119528" Properties=species:S:1:pos:R:3:forces:R:3 tau=tau39 tau_p=3 tau_q=9 stage=B constraint=xy_fixed_z_free force_label=raw_dft energy=-15499.123905361841 free_energy=-15499.123905361841 stress="0.009707680465503804 -0.0009181576151994518 0.011779962203008965 -0.0009181576151994518 0.004147317947855923 -0.0031134724731413407 0.011779962203008965 -0.0031134724731413407 -0.016880327755441918" pbc="T T T"
Sr       0.00003612       0.00009431      10.76689932       0.00275211       0.00455882       0.12437994
Sr       1.18218697       3.54684090      14.77758764      -0.48813113       0.42130096       1.29176851
Ti       1.97047269       1.97057450      12.31852715       0.51638807      -0.51357271      -0.56833181
Ti       3.15248573       1.57631578      16.29083574      -0.13402724       0.01512631       0.20207508
O        0.00000902       1.97050521      12.35518017       1.36836321       0.45273373      -1.16037280
O        1.18247295       1.57638358      16.38738241       0.01739043      -0.04076690       0.15791459
O        1.97049401       3.94093312      12.41924051      -0.23922572      -0.37732327      -0.13743163
O        3.15285639       3.54685933      16.38189830      -0.03789498       0.00133029       0.27751073
O        1.97043419       1.97038596      10.49073081       0.23887297      -0.07935916      -0.51259415
O        3.15282654       1.57633185      14.48703791      -1.24448772       0.11597192       0.32508180
10
Lattice="3.940949890606662 0.0 0.0 0.0 3.940949890606662 0.0 0.0 0.0 26.940967945119528" Properties=species:S:1:pos:R:3:forces:R:3 tau=tau39 tau_p=3 tau_q=9 stage=B constraint=xy_fixed_z_free force_label=raw_dft energy=-15499.311566085586 free_energy=-15499.311566085586 stress="0.0049507058611554435 -0.000760234505385146 0.00909251486332017 -0.000760234505385146 0.0011660601713033036 -0.0029904393527046143 0.00909251486332017 -0.0029904393527046143 -0.016270671098949484" pbc="T T T"
Sr       0.00003612       0.00009431      10.77763283      -0.00163831       0.00624264      -0.23610286
Sr       1.18218697       3.54684090      14.88158867      -0.29343435       0.35102474       0.10188331
Ti       1.97047269       1.97057450      12.27158083       0.46022464      -0.38666898      -0.25288265
Ti       3.15248573       1.57631578      16.30305207      -0.10671004       0.01618381       0.21835042
O        0.00000902       1.97050521      12.26892536       1.01622107       0.34296356      -0.40804821
O        1.18247295       1.57638358      16.39352609       0.01730095      -0.03484436       0.45381899
O        1.97049401       3.94093312      12.40351602      -0.30684831      -0.38781260       0.14139885
O        3.15285639       3.54685933      16.39625749      -0.03077482      -0.00101841       0.52598420
O        1.97043419       1.97038596      10.46463632       0.20224503      -0.06664916      -0.62989199
O        3.15282654       1.57633185      14.51460428      -0.95658613       0.16057851       0.08549021
10
Lattice="3.940949890606662 0.0 0.0 0.0 3.940949890606662 0.0 0.0 0.0 26.940967945119528" Properties=species:S:1:pos:R:3:forces:R:3 tau=tau39 tau_p=3 tau_q=9 stage=B constraint=xy_fixed_z_free force_label=raw_dft energy=-15499.359246416625 free_energy=-15499.359246416625 stress="0.003335666616019608 -0.0007069813637035779 0.008047651497223194 -0.0007069813637035779 0.00035716331231258673 -0.0029344317381774475 0.008047651497223194 -0.0029344317381774475 -0.015089002248187789" pbc="T T T"
Sr       0.00003612       0.00009431      10.77506809      -0.00359363       0.00684376      -0.42394817
Sr       1.18218697       3.54684090      14.92537240      -0.23118614       0.32183964      -0.29731928
Ti       1.97047269       1.97057450      12.24539461       0.43961879      -0.34084138      -0.20963258
Ti       3.15248573       1.57631578      16.31317094      -0.09650044       0.01695360       0.26473492
O        0.00000902       1.97050521      12.22484359       0.87821659       0.29594220      -0.09114381
O        1.18247295       1.57638358      16.40769598       0.01667412      -0.03189788       0.51734375
O        1.97049401       3.94093312      12.40038359      -0.32138301      -0.38683018       0.15768010
O        3.15285639       3.54685933      16.41542985      -0.02790984      -0.00221423       0.55850428
O        1.97043419       1.97038596      10.43960441       0.18395420      -0.05906492      -0.50483893
O        3.15282654       1.57633185      14.52835651      -0.83789064       0.17926965       0.02861972
10
Lattice="3.940949890606662 0.0 0.0 0.0 3.940949890606662 0.0 0.0 0.0 26.940967945119528" Properties=species:S:1:pos:R:3:forces:R:3 tau=tau39 tau_p=3 tau_q=9 stage=B constraint=xy_fixed_z_free force_label=raw_dft energy=-15499.411417442341 free_energy=-15499.411417442341 stress="0.0028490430799638987 -0.0006592371677132063 0.007085422316494169 -0.0006592371677132063 0.0008235873808339082 -0.0028793422812654805 0.007085422316494169 -0.0028793422812654805 -0.012599876953382078" pbc="T T T"
Sr       0.00003612       0.00009431      10.75877479      -0.00511187       0.00702837      -0.55992508
Sr       1.18218697       3.54684090      14.96329793      -0.18109385       0.29374442      -0.51653848
Ti       1.97047269       1.97057450      12.21000880       0.42065279      -0.29937257      -0.13197498
Ti       3.15248573       1.57631578      16.33184724      -0.08938749       0.01833068       0.30703934
O        0.00000902       1.97050521      12.17625009       0.75044099       0.24999813       0.15228207
O        1.18247295       1.57638358      16.43760784       0.01540579      -0.02860275       0.47177532
O        1.97049401       3.94093312      12.40052918      -0.32857387      -0.38419120       0.04549079
O        3.15285639       3.54685933      16.45165237      -0.02496053      -0.00353398       0.47440736
O        1.97043419       1.97038596      10.40082870       0.16335530      -0.05015297      -0.30109932
O        3.15282654       1.57633185      14.54452304      -0.72072752       0.19675187       0.05854325
10
Lattice="3.940949890606662 0.0 0.0 0.0 3.940949890606662 0.0 0.0 0.0 26.940967945119528" Properties=species:S:1:pos:R:3:forces:R:3 tau=tau39 tau_p=3 tau_q=9 stage=B constraint=xy_fixed_z_free force_label=raw_dft energy=-15499.468605294844 free_energy=-15499.468605294844 stress="0.003888397500369678 -0.0006059840260316382 0.006266425723736258 -0.0006059840260316382 0.003006048032163005 -0.002833434400505508 0.006266425723736258 -0.002833434400505508 -0.00875922364900277" pbc="T T T"
Sr       0.00003612       0.00009431      10.72398192      -0.00588680       0.00657842      -0.58930481
Sr       1.18218697       3.54684090      14.99039595      -0.14489632       0.26975114      -0.50551668
Ti       1.97047269       1.97057450      12.16716413       0.40319011      -0.26423304      -0.01544873
Ti       3.15248573       1.57631578      16.36152297      -0.08441137       0.01998570       0.33874876
O        0.00000902       1.97050521      12.12716338       0.64024917       0.20868050       0.27702274
O        1.18247295       1.57638358      16.48412872       0.01365487      -0.02541561       0.30355421
O        1.97049401       3.94093312      12.40104628      -0.32860190      -0.37866333      -0.17599921
O        3.15285639       3.54685933      16.50510522      -0.02215520      -0.00480154       0.26788787
O        1.97043419       1.97038596      10.34990474       0.14191332      -0.04110680      -0.05738239
O        3.15282654       1.57633185      14.56490666      -0.61305589       0.20922455       0.15643826
10
Lattice="3.940949890606662 0.0 0.0 0.0 3.940949890606662 0.0 0.0 0.0 26.940967945119528" Properties=species:S:1:pos:R:3:forces:R:3 tau=tau39 tau_p=3 tau_q=9 stage=B constraint=xy_fixed_z_free force_label=raw_dft energy=-15499.516805227255 free_energy=-15499.516805227255 stress="0.0064087401540921735 -0.0005444674658132749 0.0057063495784645925 -0.0005444674658132749 0.0066988779604952005 -0.002804053356819126 0.0057063495784645925 -0.002804053356819126 -0.004211588980919885" pbc="T T T"
Sr       0.00003612       0.00009431      10.67090093      -0.00541269       0.00555590      -0.46295592
Sr       1.18218697       3.54684090      15.00013620      -0.12637358       0.25459706      -0.26914822
Ti       1.97047269       1.97057450      12.12565364       0.38999316      -0.24170787       0.08288028
Ti       3.15248573       1.57631578      16.40168587      -0.08249847       0.02171657       0.32060345
O        0.00000902       1.97050521      12.08771214       0.56013076       0.17799979       0.25086511
O        1.18247295       1.57638358      16.53996828       0.01187978      -0.02283860       0.06781027
O        1.97049401       3.94093312      12.39607830      -0.32101946      -0.36856250      -0.41592813
O        3.15285639       3.54685933      16.56666137      -0.01962677      -0.00551862       0.00716284
O        1.97043419       1.97038596      10.29648573       0.12350243      -0.03385089       0.15348792
O        3.15282654       1.57633185      14.59003751      -0.53057491       0.21260915       0.26522266
10
Lattice="3.940949890606662 0.0 0.0 0.0 3.940949890606662 0.0 0.0 0.0 26.940967945119528" Properties=species:S:1:pos:R:3:forces:R:3 tau=tau39 tau_p=3 tau_q=9 stage=B constraint=xy_fixed_z_free force_label=raw_dft energy=-15499.54230392662 free_energy=-15499.54230392662 stress="0.008625172637183648 -0.000493968796977305 0.0055502627838806854 -0.000493968796977305 0.009383570827338397 -0.0028058896720495243 0.0055502627838806854 -0.0028058896720495243 -0.0015920853047558493" pbc="T T T"
Sr       0.00003612       0.00009431      10.62837216      -0.00407057       0.00449275      -0.26789995
Sr       1.18218697       3.54684090      14.99438504      -0.12625119       0.25216249      -0.02641757
Ti       1.97047269       1.97057450      12.10672168       0.38731175      -0.23788386       0.09064784
Ti       3.15248573       1.57631578      16.43274059      -0.08477570       0.02315098       0.22797946
O        0.00000902       1.97050521      12.07480472       0.53004372       0.16654604       0.15515091
O        1.18247295       1.57638358      16.57362822       0.01070633      -0.02164483      -0.05511185
O        1.97049401       3.94093312      12.38310225      -0.31092788      -0.35722059      -0.49137458
O        3.15285639       3.54685933      16.60173908      -0.01792573      -0.00557672      -0.11624035
O        1.97043419       1.97038596      10.26969259       0.11485915      -0.03130575       0.19898127
O        3.15282654       1.57633185      14.61013364      -0.49897013       0.20727951       0.28428508
10
Lattice="3.940949890606662 0.0 0.0 0.0 3.940949890606662 0.0 0.0 0.0 26.940967945119528" Properties=species:S:1:pos:R:3:forces:R:3 tau=tau39 tau_p=3 tau_q=9 stage=B constraint=xy_fixed_z_free force_label=raw_dft energy=-15499.560921683345 free_energy=-15499.560921683345 stress="0.010460569709967353 -0.00043704302483493903 0.005506191218351111 -0.00043704302483493903 0.011192341329281316 -0.0028086441448951223 0.005506191218351111 -0.0028086441448951223 -8.906128867434682e-05" pbc="T T T"
Sr       0.00003612       0.00009431      10.59021936      -0.00259244       0.00326839      -0.04791379
Sr       1.18218697       3.54684090      14.98662450      -0.13125996       0.25339661       0.17563771
Ti       1.97047269       1.97057450      12.09745493       0.38689883      -0.23939927       0.02844129
Ti       3.15248573       1.57631578      16.46132983      -0.08691049       0.02409381       0.09446799
O        0.00000902       1.97050521      12.07224117       0.51384577       0.16118374       0.06648873
O        1.18247295       1.57638358      16.59627602       0.00951822      -0.02087761      -0.09320660
O        1.97049401       3.94093312      12.36000214      -0.29857655      -0.34200094      -0.44458642
O        3.15285639       3.54685933      16.62343268      -0.01620823      -0.00535689      -0.14463844
O        1.97043419       1.97038596      10.25591476       0.10889907      -0.03076556       0.14196603
O        3.15282654       1.57633185      14.63182457      -0.48361422       0.19645774       0.22334376
10
Lattice="3.940949890606662 0.0 0.0 0.0 3.940949890606662 0.0 0.0 0.0 26.940967945119528" Properties=species:S:1:pos:R:3:forces:R:3 tau=tau39 tau_p=3 tau_q=9 stage=B constraint=xy_fixed_z_free force_label=raw_dft energy=-15499.572875508224 free_energy=-15499.572875508224 stress="0.01130160208549005 -0.00038470804076857026 0.005424475190598361 -0.00038470804076857026 0.011709264066638607 -0.0027801812588239398 0.005424475190598361 -0.0027801812588239398 0.00025983860510144484" pbc="T T T"
Sr       0.00003612       0.00009431      10.56511274      -0.00176840       0.00239344       0.10171130
Sr       1.18218697       3.54684090      14.98776540      -0.13247043       0.25195243       0.24935535
Ti       1.97047269       1.97057450      12.09198115       0.38241380      -0.23831118      -0.04766620
Ti       3.15248573       1.57631578      16.48221380      -0.08679916       0.02382384      -0.01037826
O        0.00000902       1.97050521      12.07185564       0.49961959       0.15761454       0.03739721
O        1.18247295       1.57638358      16.60803111       0.00863916      -0.02009343      -0.05986994
O        1.97049401       3.94093312      12.33256727      -0.28705853      -0.32540422      -0.32591921
O        3.15285639       3.54685933      16.63316401      -0.01448097      -0.00501108      -0.10135366
O        1.97043419       1.97038596      10.25073538       0.10397078      -0.03099336       0.03380101
O        3.15282654       1.57633185      14.65189347      -0.47206585       0.18402877       0.12292239
10
Lattice="3.940949890606662 0.0 0.0 0.0 3.940949890606662 0.0 0.0 0.0 26.940967945119528" Properties=species:S:1:pos:R:3:forces:R:3 tau=tau39 tau_p=3 tau_q=9 stage=B constraint=xy_fixed_z_free force_label=raw_dft energy=-15499.582255816467 free_energy=-15499.582255816467 stress="0.011385154428473201 -0.00033696384477819875 0.005220644200024082 -0.00033696384477819875 0.01140259942316199 -0.0027012197039167868 0.005220644200024082 -0.0027012197039167868 2.66265708407841e-05" pbc="T T T"
Sr       0.00003612       0.00009431      10.54780156      -0.00150384       0.00182111       0.17627715
Sr       1.18218697       3.54684090      15.00116041      -0.12714825       0.24379946       0.21338125
Ti       1.97047269       1.97057450      12.08283212       0.37036407      -0.23013199      -0.10332955
Ti       3.15248573       1.57631578      16.49981727      -0.08428822       0.02289927      -0.07186902
O        0.00000902       1.97050521      12.06785518       0.47776933       0.15201159       0.05580528
O        1.18247295       1.57638358      16.61718156       0.00805835      -0.01900559       0.00585543
O        1.97049401       3.94093312      12.30074437      -0.27457222      -0.30598210      -0.18250076
O        3.15285639       3.54685933      16.63999747      -0.01253490      -0.00469123      -0.02866420
O        1.97043419       1.97038596      10.24507479       0.09766747      -0.03092626      -0.07769514
O        3.15282654       1.57633185      14.67285523      -0.45381179       0.17020600       0.01273956
10
Lattice="3.940949890606662 0.0 0.0 0.0 3.940949890606662 0.0 0.0 0.0 26.940967945119528" Properties=species:S:1:pos:R:3:forces:R:3 tau=tau39 tau_p=3 tau_q=9 stage=B constraint=xy_fixed_z_free force_label=raw_dft energy=-15499.588946959704 free_energy=-15499.588946959704 stress="0.01091873035995188 -0.0003020738554006196 0.004931424551236255 -0.0003020738554006196 0.010651546493928838 -0.0025809410563256588 0.004931424551236255 -0.0025809410563256588 -0.000390216986459767" pbc="T T T"
Sr       0.00003612       0.00009431      10.53821507      -0.00180800       0.00160668       0.16407135
Sr       1.18218697       3.54684090      15.02358279      -0.11708907       0.22986048       0.10516918
Ti       1.97047269       1.97057450      12.06829659       0.35196423      -0.21630562      -0.11792673
Ti       3.15248573       1.57631578      16.51337468      -0.08011069       0.02164535      -0.07293166
O        0.00000902       1.97050521      12.05984618       0.45161864       0.14478293       0.09351539
O        1.18247295       1.57638358      16.62706508       0.00783415      -0.01763777       0.06341909
O        1.97049401       3.94093312      12.27092896      -0.26199156      -0.28700993      -0.07055518
O        3.15285639       3.54685933      16.64788606      -0.01071559      -0.00445032       0.03189685
O        1.97043419       1.97038596      10.23479906       0.09042878      -0.03007625      -0.13453554
O        3.15282654       1.57633185      14.69132548      -0.43013065       0.15758471      -0.06212274
10
Lattice="3.940949890606662 0.0 0.0 0.0 3.940949890606662 0.0 0.0 0.0 26.940967945119528" Properties=species:S:1:pos:R:3:forces:R:3 tau=tau39 tau_p=3 tau_q=9 stage=B constraint=xy_fixed_z_free force_label=raw_dft energy=-15499.593144315666 free_energy=-15499.593144315666 stress="0.010426597878204973 -0.00027820175740543384 0.004640368587218029 -0.00027820175740543384 0.01001250879375002 -0.0024523989901977356 0.004640368587218029 -0.0024523989901977356 -0.000493968796977305" pbc="T T T"
Sr       0.00003612       0.00009431      10.53219681      -0.00232248       0.00165116       0.10459839
Sr       1.18218697       3.54684090      15.04683730      -0.10677534       0.21452693      -0.00180080
Ti       1.97047269       1.97057450      12.04993800       0.33209988      -0.20123639      -0.09540515
Ti       3.15248573       1.57631578      16.52459777      -0.07562694       0.02026672      -0.04068154
O        0.00000902       1.97050521      12.05064379       0.42746364       0.13761393       0.11269274
O        1.18247295       1.57638358      16.64011216       0.00778016      -0.01621723       0.08242340
O        1.97049401       3.94093312      12.24678259      -0.25042596      -0.27102358      -0.01681064
O        3.15285639       3.54685933      16.65935088      -0.00925417      -0.00425646       0.05223273
O        1.97043419       1.97038596      10.21916755       0.08322764      -0.02861535      -0.11923234
O        3.15282654       1.57633185      14.70569310      -0.40616642       0.14728976      -0.07801678
10
Lattice="3.940949890606662 0.0 0.0 0.0 3.940949890606662 0.0 0.0 0.0 26.940967945119528" Properties=species:S:1:pos:R:3:forces:R:3 tau=tau39 tau_p=3 tau_q=9 stage=B constraint=xy_fixed_z_free force_label=raw_dft energy=-15499.595414289306 free_energy=-15499.595414289306 stress="0.010260411349853874 -0.00026351123556224264 0.004436537596643751 -0.00026351123556224264 0.00974440677011178 -0.002351401652525796 0.004436537596643751 -0.002351401652525796 -0.00022494861572386565" pbc="T T T"
Sr       0.00003612       0.00009431      10.52755953      -0.00275751       0.00175324       0.04788577
Sr       1.18218697       3.54684090      15.06266667      -0.09992181       0.20287212      -0.05467091
Ti       1.97047269       1.97057450      12.03322123       0.31665604      -0.19018322      -0.05597009
Ti       3.15248573       1.57631578      16.53354048      -0.07288923       0.01936375      -0.00775085
O        0.00000902       1.97050521      12.04501792       0.41217278       0.13285610       0.09573297
O        1.18247295       1.57638358      16.65379134       0.00784984      -0.01509083       0.06376439
O        1.97049401       3.94093312      12.22981933      -0.24152326      -0.25989791      -0.00806401
O        3.15285639       3.54685933      16.67152170      -0.00826892      -0.00410117       0.03654643
O        1.97043419       1.97038596      10.20320418       0.07764397      -0.02728969      -0.06506819
O        3.15282654       1.57633185      14.71497758      -0.38896214       0.13971760      -0.05240551
10
Lattice="3.940949890606662 0.0 0.0 0.0 3.940949890606662 0.0 0.0 0.0 26.940967945119528" Properties=species:S:1:pos:R:3:forces:R:3 tau=tau39 tau_p=3 tau_q=9 stage=B constraint=xy_fixed_z_free force_label=raw_dft energy=-15499.596458117992 free_energy=-15499.596458117992 stress="0.010390789731212196 -0.00025616597464064704 0.004350230780815002 -0.00025616597464064704 0.009737979666805384 -0.0022935577227682306 0.004350230780815002 -0.0022935577227682306 0.00014047811512551611" pbc="T T T"
Sr       0.00003612       0.00009431      10.52496247      -0.00300948       0.00181880       0.01792213
Sr       1.18218697       3.54684090      15.06845118      -0.09741164       0.19687708      -0.05357768
Ti       1.97047269       1.97057450      12.02295537       0.30801996      -0.18490500      -0.01941569
Ti       3.15248573       1.57631578      16.53896720      -0.07209939       0.01889427       0.00781615
O        0.00000902       1.97050521      12.04523110       0.40784972       0.13149830       0.05521058
O        1.18247295       1.57638358      16.66352618       0.00796888      -0.01445320       0.03183103
O        1.97049401       3.94093312      12.21976815      -0.23622499      -0.25393835      -0.01368367
O        3.15285639       3.54685933      16.67960017      -0.00772694      -0.00399627       0.01027927
O        1.97043419       1.97038596      10.19270664       0.07454631      -0.02663766      -0.01636764
O        3.15282654       1.57633185      14.71915150      -0.38191243       0.13484176      -0.02001424
10
Lattice="3.940949890606662 0.0 0.0 0.0 3.940949890606662 0.0 0.0 0.0 26.940967945119528" Properties=species:S:1:pos:R:3:forces:R:3 tau=tau39 tau_p=3 tau_q=9 stage=B constraint=xy_fixed_z_free force_label=raw_dft energy=-15499.596876493018 free_energy=-15499.596876493018 stress="0.010580848357558481 -0.00025616597464064704 0.004365839460273392 -0.00025616597464064704 0.009771033340952565 -0.002280703516155438 0.004365839460273392 -0.002280703516155438 0.0003176825348590103" pbc="T T T"
Sr       0.00003612       0.00009431      10.52596110      -0.00311746       0.00189593       0.00887005
Sr       1.18218697       3.54684090      15.06637781      -0.09824237       0.19617363      -0.02977183
Ti       1.97047269       1.97057450      12.02094135       0.30633949      -0.18493379      -0.00114106
Ti       3.15248573       1.57631578      16.53957764      -0.07266400       0.01875748       0.00848233
O        0.00000902       1.97050521      12.04984046       0.41237152       0.13301962       0.01831114
O        1.18247295       1.57638358      16.66625271       0.00807558      -0.01430845       0.01024456
O        1.97049401       3.94093312      12.21659413      -0.23482579      -0.25278726      -0.01442389
O        3.15285639       3.54685933      16.68081400      -0.00760789      -0.00392685      -0.00488870
O        1.97043419       1.97038596      10.19039421       0.07398041      -0.02671968       0.00618299
O        3.15282654       1.57633185      14.71856655      -0.38430947       0.13282936      -0.00186585
10
Lattice="3.940949890606662 0.0 0.0 0.0 3.940949890606662 0.0 0.0 0.0 26.940967945119528" Properties=species:S:1:pos:R:3:forces:R:3 tau=tau39 tau_p=3 tau_q=9 stage=B constraint=xy_fixed_z_free force_label=raw_dft energy=-15499.597036495956 free_energy=-15499.597036495956 stress="0.01069929068991921 -0.00025983860510144484 0.004423683390030958 -0.00025983860510144484 0.009751752031033376 -0.0022889669346922333 0.004423683390030958 -0.0022889669346922333 0.0003057464858614174" pbc="T T T"
Sr       0.00003612       0.00009431      10.52914013      -0.00315423       0.00197615       0.00666379
Sr       1.18218697       3.54684090      15.06167101      -0.10025477       0.19789267      -0.00787940
Ti       1.97047269       1.97057450      12.02336504       0.30806418      -0.18723107       0.00308455
Ti       3.15248573       1.57631578      16.53743138      -0.07364899       0.01872792       0.00385845
O        0.00000902       1.97050521      12.05530168       0.41991540       0.13555756      -0.00393276
O        1.18247295       1.57638358      16.66462816       0.00817122      -0.01441772       0.00180029
O        1.97049401       3.94093312      12.21715906      -0.23550714      -0.25398334      -0.00873275
O        3.15285639       3.54685933      16.67798182      -0.00769840      -0.00388314      -0.00776653
O        1.97043419       1.97038596      10.19280790       0.07472423      -0.02714725       0.00933439
O        3.15282654       1.57633185      14.71583377      -0.39061151       0.13250797       0.00356998
