10
Lattice="3.940949890606662 0.0 0.0 0.0 3.940949890606662 0.0 0.0 0.0 26.940967945119528" Properties=species:S:1:pos:R:3:forces:R:3 tau=tau71 tau_p=7 tau_q=1 stage=A constraint=rigid_scf force_label=raw_dft energy=-15498.57537597291 free_energy=-15498.57537597291 stress="0.015063293834962204 -0.0012633848785144456 -0.016221090587728713 -0.0012633848785144456 0.007163465713786122 0.0032548687458820564 -0.016221090587728713 0.0032548687458820564 -0.01688400038590272" pbc="T T T"
Sr       0.00003626       0.00009419      10.75260867      -0.00602615      -0.00333189       0.28946405
Sr       2.75856679       0.39408080      14.64522241       0.90361189      -0.52887078       3.06316988
Ti       1.97047258       1.97057465      12.38212169      -0.61992922       0.75428556      -1.57414068
Ti       0.78791569       2.36450570      16.28444791       0.17170495      -0.01570404       0.03891673
O        0.00000906       1.97050529      12.45001441      -1.94665445      -0.60699272      -2.07857955
O        2.75885291       2.36457348      16.39256827      -0.01374126       0.04777470      -0.18404522
O        1.97049386       3.94093294      12.44909065       0.04581526       0.31508329      -0.77441499
O        0.78828653       0.39409932      16.37955485       0.04975625      -0.00403972      -0.03159603
O        1.97043435       1.97038588      10.49176941      -0.28411950       0.08886838       0.25474593
O        0.78825658       2.36452185      14.44792112       1.69958224      -0.04707253       0.99648014
