10
Lattice="3.940949890606662 0.0 0.0 0.0 3.940949890606662 0.0 0.0 0.0 26.940967945119528" Properties=species:S:1:pos:R:3:forces:R:3 tau=tau87 tau_p=8 tau_q=7 stage=A constraint=rigid_scf force_label=raw_dft energy=-15498.23494360124 free_energy=-15498.23494360124 stress="0.009613110231138259 0.0019079315243844606 -0.006844865021311912 0.0019079315243844606 0.014478427434080152 -0.012761472693657178 -0.006844865021311912 -0.012761472693657178 -0.01570784048083222" pbc="T T T"
Sr       0.00003626       0.00009419      10.75260867       0.00345711      -0.00625678       0.40480528
Sr       3.15266178       2.75865074      14.64522241       1.03342406       1.04590111       3.41302272
Ti       1.97047258       1.97057465      12.38212169      -1.21117394      -0.88888333      -2.45995386
Ti       1.18201068       0.78812574      16.28444791       0.04612251       0.12252078      -0.18975950
O        0.00000906       1.97050529      12.45001441      -0.66889177       0.35459344      -0.77437951
O        3.15294790       0.78819352      16.39256827      -0.00980233      -0.00310718      -0.08561516
O        1.97049386       3.94093294      12.44909065       0.83214679      -1.45468466      -1.44332270
O        1.18238152       2.75866926      16.37955485      -0.07989677      -0.01431667      -0.12664406
O        1.97043435       1.97038588      10.49176941      -0.14846681      -0.22221170       0.32675224
O        1.18235157       0.78814190      14.44792112       0.20308090       1.06644500       0.93509479
