10
Lattice="3.940949890606662 0.0 0.0 0.0 3.940949890606662 0.0 0.0 0.0 26.940967945119528" Properties=species:S:1:pos:R:3:forces:R:3 tau=tau01 tau_p=0 tau_q=1 stage=A constraint=rigid_scf force_label=raw_dft energy=-15500.494350382665 free_energy=-15500.494350382665 stress="0.009050279613020995 0.0 -0.0 0.0 0.009266046652592867 0.007044105223810193 -0.0 0.007044105223810193 -0.0008401142179074983" pbc="T T T"
Sr       0.00003626       0.00009419      10.75260867      -0.00006993      -0.00265775       0.05748138
Sr       3.94085176       0.39408080      14.64522241      -0.00006942      -0.30436565       0.34480473
Ti       1.97047258       1.97057465      12.38212169      -0.00000154       0.24050125      -0.04274870
Ti       1.97020066       2.36450570      16.28444791      -0.00087315      -0.04956290      -0.00074511
O        0.00000906       1.97050529      12.45001441      -0.00002623      -0.22480363      -0.04022465
O        0.00018798       2.36457348      16.39256827       0.00058261      -0.02830219      -0.02642426
O        1.97049386       3.94093294      12.44909065       0.00000977       0.98408742      -0.29403393
O        1.97057150       0.39409932      16.37955485       0.00042912      -0.01144475       0.00873378
O        1.97043435       1.97038588      10.49176941       0.00011133       0.17920203       0.03958522
O        1.97054155       2.36452185      14.44792112      -0.00009256      -0.78265357      -0.04642847
