10
Lattice="3.940949890606662 0.0 0.0 0.0 3.940949890606662 0.0 0.0 0.0 26.940967945119528" Properties=species:S:1:pos:R:3:forces:R:3 tau=tau63 tau_p=6 tau_q=3 stage=A constraint=rigid_scf force_label=raw_dft energy=-15497.078192979334 free_energy=-15497.078192979334 stress="0.018293372325233877 -0.001079753355474555 -0.0068402742332359144 -0.001079753355474555 0.011253857889499678 0.006147065233760329 -0.0068402742332359144 0.006147065233760329 -0.02175574469215101" pbc="T T T"
Sr       0.00003626       0.00009419      10.75260867      -0.00553404      -0.00742895       0.60188908
Sr       2.36447180       1.18227078      14.64522241       0.90573254      -1.51256482       5.07507816
Ti       1.97047258       1.97057465      12.38212169      -0.78433327       1.54471672      -5.05416378
Ti       0.39382070       3.15269568      16.28444791       0.04071856       0.01221917      -0.58180851
O        0.00000906       1.97050529      12.45001441      -0.69149974      -0.92441880      -1.03859738
O        2.36475792       3.15276346      16.39256827      -0.01040191       0.12444062      -0.17429148
O        1.97049386       3.94093294      12.44909065       0.35472688       0.43648050      -0.57435308
O        0.39419154       1.18228930      16.37955485      -0.04057844       0.01777147      -0.07391844
O        1.97043435       1.97038588      10.49176941      -0.09989559       0.09709077       0.42999206
O        0.39416159       3.15271183      14.44792112       0.33106476       0.21169358       1.39017337
