10
Lattice="3.940949890606662 0.0 0.0 0.0 3.940949890606662 0.0 0.0 0.0 26.940967945119528" Properties=species:S:1:pos:R:3:forces:R:3 tau=tau09 tau_p=0 tau_q=9 stage=A constraint=rigid_scf force_label=raw_dft energy=-15500.494291606075 free_energy=-15500.494291606075 stress="0.009033752775947404 -0.0 -9.181576151994517e-07 -0.0 0.009249519815519277 -0.007043187066194994 -9.181576151994517e-07 -0.007043187066194994 -0.0008529684245202907" pbc="T T T"
Sr       0.00003626       0.00009419      10.75260867      -0.00007430       0.00270840       0.05776420
Sr       3.94085176       3.54684071      14.64522241      -0.00007610       0.30430934       0.34493637
Ti       1.97047258       1.97057465      12.38212169      -0.00000489      -0.24068302      -0.04305235
Ti       1.97020066       1.57631572      16.28444791      -0.00085926       0.04936749      -0.00070680
O        0.00000906       1.97050529      12.45001441      -0.00002957       0.22451876      -0.04044577
O        0.00018798       1.57638350      16.39256827       0.00058673       0.02833356      -0.02652401
O        1.97049386       3.94093294      12.44909065       0.00000926      -0.98411493      -0.29423165
O        1.97057150       3.54685924      16.37955485       0.00043477       0.01158642       0.00871913
O        1.97043435       1.97038588      10.49176941       0.00011030      -0.17890456       0.04021154
O        1.97054155       1.57633188      14.44792112      -0.00009667       0.78287829      -0.04667092
