10
Lattice="3.940949890606662 0.0 0.0 0.0 3.940949890606662 0.0 0.0 0.0 26.940967945119528" Properties=species:S:1:pos:R:3:forces:R:3 tau=tau52 tau_p=5 tau_q=2 stage=A constraint=rigid_scf force_label=raw_dft energy=-15497.086767558503 free_energy=-15497.086767558503 stress="0.021640056832635875 -9.181576151994517e-07 -9.181576151994517e-07 -9.181576151994517e-07 0.006057085787470782 0.00169124632719739 -9.181576151994517e-07 0.00169124632719739 -0.02704341439808465" pbc="T T T"
Sr       0.00003626       0.00009419      10.75260867      -0.00009950      -0.01439715       0.50331221
Sr       1.97037682       0.78817579      14.64522241      -0.00039904      -1.27494989       4.92967611
Ti       1.97047258       1.97057465      12.38212169       0.00009822       1.57673981      -4.01415821
Ti       3.94067560       2.75860069      16.28444791       0.00042886       0.06563538      -0.23746015
O        0.00000906       1.97050529      12.45001441      -0.00003625      -1.26044759      -2.33772721
O        1.97066293       2.75866847      16.39256827      -0.00051653       0.15776315      -0.26295495
O        1.97049386       3.94093294      12.44909065       0.00002828      -0.05072709      -0.97570485
O        0.00009655       0.78819431      16.37955485       0.00047025       0.01960235      -0.03999917
O        1.97043435       1.97038588      10.49176941       0.00015375       0.08497702       0.40907691
O        0.00006660       2.75861684      14.44792112      -0.00012727       0.69580428       2.02593905
