10
Lattice="3.940949890606662 0.0 0.0 0.0 3.940949890606662 0.0 0.0 0.0 26.940967945119528" Properties=species:S:1:pos:R:3:forces:R:3 tau=tau91 tau_p=9 tau_q=1 stage=A constraint=rigid_scf force_label=raw_dft energy=-15500.272151882058 free_energy=-15500.272151882058 stress="0.009449678175632756 -0.0003654267308493818 -0.0067558037326375655 -0.0003654267308493818 0.009158622211614531 0.006750294786946369 -0.0067558037326375655 0.006750294786946369 -0.001894159160156469" pbc="T T T"
Sr       0.00003626       0.00009419      10.75260867       0.00211242      -0.00214739       0.09742501
Sr       3.54675677       0.39408080      14.64522241       0.35252704      -0.35303946       0.67556198
Ti       1.97047258       1.97057465      12.38212169      -0.33988930       0.34026442      -0.15369386
Ti       1.57610567       2.36450570      16.28444791       0.04813645      -0.04798501      -0.01397446
O        0.00000906       1.97050529      12.45001441      -0.90680674      -0.27280510      -0.29844748
O        3.54704288       2.36457348      16.39256827       0.00999439      -0.02016388      -0.03385063
O        1.97049386       3.94093294      12.44909065       0.27292363       0.90487302      -0.29589515
O        1.57647651       0.39409932      16.37955485       0.02096195      -0.01070633       0.00409577
O        1.97043435       1.97038588      10.49176941      -0.16387080       0.16384946       0.08154048
O        1.57644656       2.36452185      14.44792112       0.70391097      -0.70213973      -0.06276191
