10
Lattice="3.940949890606662 0.0 0.0 0.0 3.940949890606662 0.0 0.0 0.0 26.940967945119528" Properties=species:S:1:pos:R:3:forces:R:3 tau=tau16 tau_p=1 tau_q=6 stage=B constraint=xy_fixed_z_free force_label=raw_dft energy=-15497.559233238228 free_energy=-15497.559233238228 stress="0.005624633550711842 -0.0009548839198074298 0.0005683395638084606 -0.0009548839198074298 0.019551248258057125 -0.01199022029688964 0.0005683395638084606 -0.01199022029688964 -0.029112941662744217" pbc="T T T"
Sr       0.00003626       0.00009419      10.75260867      -0.00725668      -0.00678051       0.34261107
Sr       0.39399686       2.36455575      14.64522241      -0.58157582       0.68028716       4.49329100
Ti       1.97047258       1.97057465      12.38212169       0.89381059      -0.39736528      -2.60046079
Ti       2.36429564       0.39403075      16.28444791       0.02689322       0.13072825       0.14129575
O        0.00000906       1.97050529      12.45001441      -0.04378974      -0.10552784      -1.30133044
O        0.39428297       0.39409854      16.39256827       0.00148070       0.03525034      -0.08581160
O        1.97049386       3.94093294      12.44909065      -0.81746322      -1.40793249      -3.14334562
O        2.36466649       2.36457427      16.37955485       0.08850714      -0.01560403      -0.24683645
O        1.97043435       1.97038588      10.49176941       0.06297043      -0.18564008       0.31314468
O        2.36463654       0.39404691      14.44792112       0.37642339       1.27258422       2.08744240
10
Lattice="3.940949890606662 0.0 0.0 0.0 3.940949890606662 0.0 0.0 0.0 26.940967945119528" Properties=species:S:1:pos:R:3:forces:R:3 tau=tau16 tau_p=1 tau_q=6 stage=B constraint=xy_fixed_z_free force_label=raw_dft energy=-15498.26762596989 free_energy=-15498.26762596989 stress="0.003938896169205648 -0.0007023905756275805 0.0012817480308184345 -0.0007023905756275805 0.014734593408720801 -0.00919167588576171 0.0012817480308184345 -0.00919167588576171 -0.02769897893533706" pbc="T T T"
Sr       0.00003612       0.00009431      10.75966024      -0.00804061      -0.00459045       0.31969071
Sr       0.39399699       2.36455593      14.73770235      -0.53062993       0.42955318       2.84376942
Ti       1.97047269       1.97057450      12.32860001       0.65600489      -0.35031615      -1.38584389
Ti       2.36429575       0.39403080      16.28735603       0.01909147       0.10625135       0.55239200
O        0.00000902       1.97050521      12.42323085       0.11931281       0.03590108      -0.55402594
O        0.39428297       0.39409860      16.39080218       0.00100582       0.02923679       0.12380607
O        1.97049401       3.94093312      12.38439519      -0.61532772      -1.04184494      -2.25909774
O        2.36466641       2.36457436      16.37447449       0.07679885      -0.01664198       0.01052764
O        1.97043419       1.97038596      10.49821444       0.06206232      -0.15801794      -0.50146899
O        2.36463656       0.39404688      14.49088420       0.21972211       0.97046880       0.85025070
10
Lattice="3.940949890606662 0.0 0.0 0.0 3.940949890606662 0.0 0.0 0.0 26.940967945119528" Properties=species:S:1:pos:R:3:forces:R:3 tau=tau16 tau_p=1 tau_q=6 stage=B constraint=xy_fixed_z_free force_label=raw_dft energy=-15498.717069322234 free_energy=-15498.717069322234 stress="0.0014617069233975272 -0.0005407948353524771 0.0017555173602613516 -0.0005407948353524771 0.009341335577039221 -0.006970652614594237 0.0017555173602613516 -0.006970652614594237 -0.025467855930402388" pbc="T T T"
Sr       0.00003612       0.00009431      10.77073976      -0.00961901      -0.00143905       0.06342603
Sr       0.39399699       2.36455593      14.83942996      -0.46162743       0.25875762       1.29772138
Ti       1.97047269       1.97057450      12.27812441       0.47961950      -0.31093893      -0.56146054
Ti       2.36429575       0.39403080      16.30551161       0.01196283       0.08613376       0.39261234
O        0.00000902       1.97050521      12.40247782       0.21610019       0.12232280      -0.05493753
O        0.39428297       0.39409860      16.39461364       0.00018743       0.02308079       0.45377785
O        1.97049401       3.94093312      12.30451728      -0.45035469      -0.75899325      -1.36687429
O        2.36466641       2.36457436      16.37427313       0.06261330      -0.01486380       0.39858372
O        1.97043419       1.97038596      10.48270084       0.05656196      -0.13299340      -0.95257752
O        2.36463656       0.39404688      14.52293151       0.09455592       0.72893346       0.32972881
10
Lattice="3.940949890606662 0.0 0.0 0.0 3.940949890606662 0.0 0.0 0.0 26.940967945119528" Properties=species:S:1:pos:R:3:forces:R:3 tau=tau16 tau_p=1 tau_q=6 stage=B constraint=xy_fixed_z_free force_label=raw_dft energy=-15498.963053293475 free_energy=-15498.963053293475 stress="-0.0016995097457341852 -0.0004223525029917478 0.002019946753438794 -0.0004223525029917478 0.0035220526119050964 -0.005103120025278553 0.002019946753438794 -0.005103120025278553 -0.022011910666791656" pbc="T T T"
Sr       0.00003612       0.00009431      10.77914935      -0.01096241       0.00236310      -0.45532052
Sr       0.39399699       2.36455593      14.95131160      -0.38164453       0.14459036      -0.11162959
Ti       1.97047269       1.97057450      12.22477671       0.34521354      -0.27814888      -0.36018378
Ti       2.36429575       0.39403080      16.32993122       0.00530316       0.06638743       0.23991889
O        0.00000902       1.97050521      12.38710983       0.26293207       0.16725386       0.24512743
O        0.39428297       0.39409860      16.41490360       0.00051319       0.01752541       0.76671813
O        1.97049401       3.94093312      12.20342292      -0.30885557      -0.52502801      -0.36334084
O        2.36466641       2.36457436      16.39003832       0.04825086      -0.01286683       0.77819811
O        1.97043419       1.97038596      10.43747814       0.04557203      -0.10636422      -0.77061721
O        2.36463656       0.39404688      14.55719828      -0.00632234       0.52428779       0.03112912
10
Lattice="3.940949890606662 0.0 0.0 0.0 3.940949890606662 0.0 0.0 0.0 26.940967945119528" Properties=species:S:1:pos:R:3:forces:R:3 tau=tau16 tau_p=1 tau_q=6 stage=B constraint=xy_fixed_z_free force_label=raw_dft energy=-15499.042368490942 free_energy=-15499.042368490942 stress="-0.001979547818370018 -0.0003837898831533708 0.0020585093732771705 -0.0003837898831533708 0.002061263846122769 -0.00443745575425895 0.0020585093732771705 -0.00443745575425895 -0.01974406135724901" pbc="T T T"
Sr       0.00003612       0.00009431      10.77007991      -0.01110562       0.00367051      -0.65034923
Sr       0.39399699       2.36455593      14.99345699      -0.34556963       0.11202785      -0.47379878
Ti       1.97047269       1.97057450      12.19217471       0.29813921      -0.26352213      -0.26318223
Ti       2.36429575       0.39403080      16.34488654       0.00282410       0.05988691       0.29482120
O        0.00000902       1.97050521      12.38609874       0.27139305       0.17514123       0.19027989
O        0.39428297       0.39409860      16.44192744       0.00128941       0.01559477       0.75050604
O        1.97049401       3.94093312      12.15481730      -0.25791044      -0.44368884      -0.01675485
O        2.36466641       2.36457436      16.41559473       0.04223423      -0.01187670       0.78624540
O        1.97043419       1.97038596      10.40315900       0.03921652      -0.09446413      -0.58588602
O        2.36463656       0.39404688      14.57312460      -0.04051056       0.44723054      -0.03188142
10
Lattice="3.940949890606662 0.0 0.0 0.0 3.940949890606662 0.0 0.0 0.0 26.940967945119528" Properties=species:S:1:pos:R:3:forces:R:3 tau=tau16 tau_p=1 tau_q=6 stage=B constraint=xy_fixed_z_free force_label=raw_dft energy=-15499.136953628573 free_energy=-15499.136953628573 stress="-0.0006757640047867964 -0.0003461454209301933 0.0020759543679659603 -0.0003461454209301933 0.0019832204488308158 -0.0038296354129969128 0.0020759543679659603 -0.0038296354129969128 -0.01604021353753442" pbc="T T T"
Sr       0.00003612       0.00009431      10.74387811      -0.01066751       0.00458942      -0.76372100
Sr       0.39399699       2.36455593      15.03000407      -0.31049079       0.08580723      -0.62731446
Ti       1.97047269       1.97057450      12.14912482       0.25589007      -0.24724088      -0.11650517
Ti       2.36429575       0.39403080      16.36901428      -0.00015272       0.05443900       0.35457878
O        0.00000902       1.97050521      12.38730691       0.27635939       0.17884954      -0.00175298
O        0.39428297       0.39409860      16.48813586       0.00232968       0.01380965       0.59103697
O        1.97049401       3.94093312      12.10135113      -0.21087494      -0.37077853       0.23149313
O        2.36466641       2.36457436      16.46108087       0.03617902      -0.01055489       0.64350804
O        1.97043419       1.97038596      10.35426062       0.03213416      -0.08190249      -0.34321810
O        2.36463656       0.39404688      14.59116330      -0.07070611       0.37298171       0.03189479
10
Lattice="3.940949890606662 0.0 0.0 0.0 3.940949890606662 0.0 0.0 0.0 26.940967945119528" Properties=species:S:1:pos:R:3:forces:R:3 tau=tau16 tau_p=1 tau_q=6 stage=B constraint=xy_fixed_z_free force_label=raw_dft energy=-15499.24673890918 free_energy=-15499.24673890918 stress="0.0032208969141196767 -0.00029564675209422343 0.0020823814712723565 -0.00029564675209422343 0.0039040061798280685 -0.0031841706095116985 0.0020823814712723565 -0.0031841706095116985 -0.009735225193959786" pbc="T T T"
Sr       0.00003612       0.00009431      10.68487290      -0.00889653       0.00504090      -0.75106269
Sr       0.39399699       2.36455593      15.06438939      -0.27329155       0.06226518      -0.53583358
Ti       1.97047269       1.97057450      12.08645155       0.21202499      -0.22665508       0.07171655
Ti       2.36429575       0.39403080      16.41345169      -0.00327301       0.04897180       0.43196924
O        0.00000902       1.97050521      12.38619731       0.27682065       0.17808952      -0.35417177
O        0.39428297       0.39409860      16.56779322       0.00348564       0.01167821       0.23745578
O        1.97049401       3.94093312      12.03350140      -0.16162726      -0.29526703       0.37237493
O        2.36466641       2.36457436      16.54128013       0.02933577      -0.00881786       0.29600468
O        1.97043419       1.97038596      10.27792137       0.02397811      -0.06668413       0.00723483
O        2.36463656       0.39404688      14.61946099      -0.09855681       0.29137875       0.22431230
10
Lattice="3.940949890606662 0.0 0.0 0.0 3.940949890606662 0.0 0.0 0.0 26.940967945119528" Properties=species:S:1:pos:R:3:forces:R:3 tau=tau16 tau_p=1 tau_q=6 stage=B constraint=xy_fixed_z_free force_label=raw_dft energy=-15499.307484378007 free_energy=-15499.307484378007 stress="0.007325061454061225 -0.00025524781702544757 0.002097990150730747 -0.00025524781702544757 0.006703468748571196 -0.0028784241236502815 0.002097990150730747 -0.0028784241236502815 -0.004850626681098704" pbc="T T T"
Sr       0.00003612       0.00009431      10.62335505      -0.00714638       0.00456397      -0.56820583
Sr       0.39399699       2.36455593      15.07338467      -0.25746590       0.05424796      -0.27760021
Ti       1.97047269       1.97057450      12.04548642       0.19324488      -0.21546539       0.14501099
Ti       2.36429575       0.39403080      16.45627977      -0.00535638       0.04782972       0.41178403
O        0.00000902       1.97050521      12.37580432       0.27200112       0.17316097      -0.57250343
O        0.39428297       0.39409860      16.62999490       0.00409937       0.01025844      -0.03340917
O        1.97049401       3.94093312      11.99605726      -0.13697141      -0.25798089       0.31322104
O        2.36466641       2.36457436      16.60545347       0.02570460      -0.00774262       0.01423903
O        1.97043419       1.97038596      10.22383626       0.01988337      -0.05809022       0.19684237
O        2.36463656       0.39404688      14.64566785      -0.10799302       0.24921806       0.37062092
10
Lattice="3.940949890606662 0.0 0.0 0.0 3.940949890606662 0.0 0.0 0.0 26.940967945119528" Properties=species:S:1:pos:R:3:forces:R:3 tau=tau16 tau_p=1 tau_q=6 stage=B constraint=xy_fixed_z_free force_label=raw_dft energy=-15499.350211148727 free_energy=-15499.350211148727 stress="0.010793860924284755 -0.00021760335480227008 0.002125534879186731 -0.00021760335480227008 0.009552511828535096 -0.00274620942706156 0.002125534879186731 -0.00274620942706156 -0.001500269543235904" pbc="T T T"
Sr       0.00003612       0.00009431      10.56363875      -0.00519903       0.00342162      -0.29261777
Sr       0.39399699       2.36455593      15.06964139      -0.25289833       0.05376022       0.00436008
Ti       1.97047269       1.97057450      12.02155161       0.18663072      -0.20908057       0.10834372
Ti       2.36429575       0.39403080      16.49808755      -0.00625447       0.04795699       0.29644768
O        0.00000902       1.97050521      12.35343012       0.26354296       0.16604287      -0.62818349
O        0.39428297       0.39409860      16.67426024       0.00430248       0.00907677      -0.17551970
O        1.97049401       3.94093312      11.97908275      -0.12419122      -0.23851070       0.18290237
O        2.36466641       2.36457436      16.65251583       0.02372691      -0.00687590      -0.14531104
O        1.97043419       1.97038596      10.18928108       0.01817024      -0.05270247       0.24065448
O        2.36463656       0.39404688      14.67383065      -0.10783052       0.22691142       0.40892367
10
Lattice="3.940949890606662 0.0 0.0 0.0 3.940949890606662 0.0 0.0 0.0 26.940967945119528" Properties=species:S:1:pos:R:3:forces:R:3 tau=tau16 tau_p=1 tau_q=6 stage=B constraint=xy_fixed_z_free force_label=raw_dft energy=-15499.382159898467 free_energy=-15499.382159898467 stress="0.013081909701361789 -0.0001762862621182947 0.0021457343467211187 -0.0001762862621182947 0.01187177796452891 -0.0026764294483064017 0.0021457343467211187 -0.0026764294483064017 0.0003764446222317752" pbc="T T T"
Sr       0.00003612       0.00009431      10.50925077      -0.00338537       0.00210342       0.00686562
Sr       0.39399699       2.36455593      15.06449661      -0.25182284       0.05625034       0.23737736
Ti       1.97047269       1.97057450      12.00771349       0.18482812      -0.20500588      -0.00401735
Ti       2.36429575       0.39403080      16.53886512      -0.00674837       0.04894969       0.10650641
O        0.00000902       1.97050521      12.31813947       0.25129191       0.15731218      -0.54009981
O        0.39428297       0.39409860      16.70332730       0.00419681       0.00782952      -0.18928770
O        1.97049401       3.94093312      11.97317774      -0.11687129      -0.22590792       0.06784267
O        2.36466641       2.36457436      16.68472291       0.02243570      -0.00595699      -0.17735598
O        1.97043419       1.97038596      10.16918836       0.01788022      -0.04865941       0.16092432
O        2.36463656       0.39404688      14.70643819      -0.10180489       0.21308506       0.33124448
10
Lattice="3.940949890606662 0.0 0.0 0.0 3.940949890606662 0.0 0.0 0.0 26.940967945119528" Properties=species:S:1:pos:R:3:forces:R:3 tau=tau16 tau_p=1 tau_q=6 stage=B constraint=xy_fixed_z_free force_label=raw_dft energy=-15499.401474946902 free_energy=-15499.401474946902 stress="0.013497835101047139 -0.00014506890320151335 0.002124616721571531 -0.00014506890320151335 0.012715564812897208 -0.0026066494695512433 0.002124616721571531 -0.0026066494695512433 0.0005426311505828759" pbc="T T T"
Sr       0.00003612       0.00009431      10.47815830      -0.00226103       0.00144033       0.18333482
Sr       0.39399699       2.36455593      15.06865489      -0.24761189       0.05752123       0.31648454
Ti       1.97047269       1.97057450      11.99985055       0.18163918      -0.19938262      -0.10659459
Ti       2.36429575       0.39403080      16.56602628      -0.00703300       0.04808040      -0.02529323
O        0.00000902       1.97050521      12.28191047       0.23837006       0.14937595      -0.39012145
O        0.39428297       0.39409860      16.71457539       0.00398007       0.00677537      -0.11401583
O        1.97049401       3.94093312      11.97175086      -0.11287477      -0.21685713       0.03478883
O        2.36466641       2.36457436      16.69813620       0.02152013      -0.00525688      -0.11209316
O        1.97043419       1.97038596      10.16179621       0.01832451      -0.04566922       0.03016495
O        2.36463656       0.39404688      14.73446080      -0.09405352       0.20397256       0.18334537
10
Lattice="3.940949890606662 0.0 0.0 0.0 3.940949890606662 0.0 0.0 0.0 26.940967945119528" Properties=species:S:1:pos:R:3:forces:R:3 tau=tau16 tau_p=1 tau_q=6 stage=B constraint=xy_fixed_z_free force_label=raw_dft energy=-15499.4173549663 free_energy=-15499.4173549663 stress="0.012822071096260344 -0.00011752417474552982 0.0020456551666643784 -0.00011752417474552982 0.012551214599776504 -0.0024689258272713255 0.0020456551666643784 -0.0024689258272713255 -0.00010191549528713913" pbc="T T T"
Sr       0.00003612       0.00009431      10.45807085      -0.00155192       0.00127887       0.26000075
Sr       0.39399699       2.36455593      15.08692654      -0.23470187       0.05580297       0.27477200
Ti       1.97047269       1.97057450      11.98692243       0.17189162      -0.18841250      -0.16505300
Ti       2.36429575       0.39403080      16.58925958      -0.00732816       0.04537560      -0.10179640
O        0.00000902       1.97050521      12.24032228       0.22221942       0.14000659      -0.22542687
O        0.39428297       0.39409860      16.72230118       0.00361934       0.00555873      -0.00276394
O        1.97049401       3.94093312      11.96662073      -0.10774696      -0.20450760       0.05726567
O        2.36466641       2.36457436      16.70749002       0.02018650      -0.00477582      -0.00466295
O        1.97043419       1.97038596      10.15359114       0.01860630      -0.04195706      -0.10341131
O        2.36463656       0.39404688      14.76381521      -0.08519453       0.19163023       0.01107606
10
Lattice="3.940949890606662 0.0 0.0 0.0 3.940949890606662 0.0 0.0 0.0 26.940967945119528" Properties=species:S:1:pos:R:3:forces:R:3 tau=tau16 tau_p=1 tau_q=6 stage=B constraint=xy_fixed_z_free force_label=raw_dft energy=-15499.429972340771 free_energy=-15499.429972340771 stress="0.011645911191189845 -9.548839198074298e-05 0.0019134404700756574 -9.548839198074298e-05 0.011749663001707385 -0.0022715219400034434 0.0019134404700756574 -0.0022715219400034434 -0.0008750042072850775" pbc="T T T"
Sr       0.00003612       0.00009431      10.44570896      -0.00124287       0.00147427       0.22755908
Sr       0.39399699       2.36455593      15.11780370      -0.21370161       0.05154959       0.14777724
Ti       1.97047269       1.97057450      11.96506680       0.15587699      -0.17294551      -0.16309253
Ti       2.36429575       0.39403080      16.60980855      -0.00708287       0.04093968      -0.10785829
O        0.00000902       1.97050521      12.19806803       0.20429266       0.12952241      -0.10019306
O        0.39428297       0.39409860      16.73396266       0.00312055       0.00438090       0.08987651
O        1.97049401       3.94093312      11.95525229      -0.10085281      -0.18893469       0.10531239
O        2.36466641       2.36457436      16.72026186       0.01823503      -0.00439967       0.08933529
O        1.97043419       1.97038596      10.13763638       0.01820855      -0.03739284      -0.17406857
O        2.36463656       0.39404688      14.79175075      -0.07685336       0.17580586      -0.11464806
10
Lattice="3.940949890606662 0.0 0.0 0.0 3.940949890606662 0.0 0.0 0.0 26.940967945119528" Properties=species:S:1:pos:R:3:forces:R:3 tau=tau16 tau_p=1 tau_q=6 stage=B constraint=xy_fixed_z_free force_label=raw_dft energy=-15499.439641906027 free_energy=-15499.439641906027 stress="0.010592784406556074 -7.896155490715285e-05 0.0017527628874157532 -7.896155490715285e-05 0.010894858261956695 -0.002046573324279578 0.0017527628874157532 -0.002046573324279578 -0.0011541241223057108" pbc="T T T"
Sr       0.00003612       0.00009431      10.43294393      -0.00115828       0.00178126       0.13288772
Sr       0.39399699       2.36455593      15.15550978      -0.18863644       0.04643181       0.00895181
Ti       1.97047269       1.97057450      11.93323091       0.13674618      -0.15539799      -0.11731044
Ti       2.36429575       0.39403080      16.63201647      -0.00628943       0.03616102      -0.06927169
O        0.00000902       1.97050521      12.15585994       0.18567119       0.11811031      -0.03590546
O        0.39428297       0.39409860      16.75588455       0.00264901       0.00336943       0.12430075
O        1.97049401       3.94093312      11.93822248      -0.09258671      -0.17170444       0.13668242
O        2.36466641       2.36457436      16.74318774       0.01590047      -0.00408523       0.12712203
O        1.97043419       1.97038596      10.10995651       0.01698239      -0.03237867      -0.15538616
O        2.36463656       0.39404688      14.81850765      -0.06927837       0.15771224      -0.15207150
10
Lattice="3.940949890606662 0.0 0.0 0.0 3.940949890606662 0.0 0.0 0.0 26.940967945119528" Properties=species:S:1:pos:R:3:forces:R:3 tau=tau16 tau_p=1 tau_q=6 stage=B constraint=xy_fixed_z_free force_label=raw_dft energy=-15499.44552677596 free_energy=-15499.44552677596 stress="0.010167677430718728 -6.610734829436053e-05 0.0016104484570598383 -6.610734829436053e-05 0.01058268467278888 -0.0018611054860092886 0.0016104484570598383 -0.0018611054860092886 -0.0006821911080931926" pbc="T T T"
Sr       0.00003612       0.00009431      10.41711232      -0.00099193       0.00194967       0.04650457
Sr       0.39399699       2.36455593      15.18784141      -0.16747060       0.04255793      -0.06302931
Ti       1.97047269       1.97057450      11.89936574       0.12097220      -0.14089825      -0.05365275
Ti       2.36429575       0.39403080      16.65458381      -0.00543480       0.03318986      -0.02450133
O        0.00000902       1.97050521      12.11891061       0.16987664       0.10795317      -0.02756017
O        0.39428297       0.39409860      16.78447206       0.00234536       0.00258859       0.09176010
O        1.97049401       3.94093312      11.92194677      -0.08548661      -0.15766442       0.12101103
O        2.36466641       2.36457436      16.77289294       0.01383202      -0.00389702       0.09595460
O        1.97043419       1.97038596      10.07729636       0.01551481      -0.02813147      -0.08009192
O        2.36463656       0.39404688      14.84089794      -0.06315709       0.14235170      -0.10639508
10
Lattice="3.940949890606662 0.0 0.0 0.0 3.940949890606662 0.0 0.0 0.0 26.940967945119528" Properties=species:S:1:pos:R:3:forces:R:3 tau=tau16 tau_p=1 tau_q=6 stage=B constraint=xy_fixed_z_free force_label=raw_dft energy=-15499.44778627322 free_energy=-15499.44778627322 stress="0.010239293724704286 -6.059840260316382e-05 0.0015314869021526853 -6.059840260316382e-05 0.010795697239515152 -0.001773880512565341 0.0015314869021526853 -0.001773880512565341 -1.1017891382393419e-05" pbc="T T T"
Sr       0.00003612       0.00009431      10.40485518      -0.00088009       0.00193733       0.01274984
Sr       0.39399699       2.36455593      15.20331579      -0.15659072       0.04118342      -0.05758551
Ti       1.97047269       1.97057450      11.87817757       0.11362990      -0.13319497      -0.01725519
Ti       2.36429575       0.39403080      16.66950799      -0.00497714       0.03166699       0.00053813
O        0.00000902       1.97050521      12.09588887       0.16098500       0.10211805      -0.03392134
O        0.39428297       0.39409860      16.80524685       0.00220061       0.00223943       0.04003439
O        1.97049401       3.94093312      11.91492995      -0.08226733      -0.15127163       0.07659599
O        2.36466641       2.36457436      16.79461576       0.01263594      -0.00373761       0.04269934
O        1.97043419       1.97038596      10.05551739       0.01468897      -0.02576837      -0.01697288
O        2.36463656       0.39404688      14.85326461      -0.05942539       0.13482736      -0.04688252
10
Lattice="3.940949890606662 0.0 0.0 0.0 3.940949890606662 0.0 0.0 0.0 26.940967945119528" Properties=species:S:1:pos:R:3:forces:R:3 tau=tau16 tau_p=1 tau_q=6 stage=B constraint=xy_fixed_z_free force_label=raw_dft energy=-15499.448443564197 free_energy=-15499.448443564197 stress="0.010335700274300228 -5.7843929757565454e-05 0.001502105858466303 -5.7843929757565454e-05 0.011069308208844589 -0.0017545992026461524 0.001502105858466303 -0.0017545992026461524 0.0003406364752389966" pbc="T T T"
Sr       0.00003612       0.00009431      10.39983997      -0.00084075       0.00193270       0.00956168
Sr       0.39399699       2.36455593      15.20654532      -0.15308991       0.04130272      -0.03216630
Ti       1.97047269       1.97057450      11.87033490       0.11156351      -0.13049428      -0.00112152
Ti       2.36429575       0.39403080      16.67557507      -0.00466809       0.03133738       0.00297091
O        0.00000902       1.97050521      12.08486592       0.15746130       0.09972564      -0.02871357
O        0.39428297       0.39409860      16.81384441       0.00215098       0.00208131       0.01002345
O        1.97049401       3.94093312      11.91581465      -0.08196086      -0.15042625       0.03770806
O        2.36466641       2.36457436      16.80377278       0.01223537      -0.00369673       0.01081740
O        1.97043419       1.97038596      10.04738804       0.01455090      -0.02490191       0.00533221
O        2.36463656       0.39404688      14.85733890      -0.05740271       0.13313995      -0.01441258
10
Lattice="3.940949890606662 0.0 0.0 0.0 3.940949890606662 0.0 0.0 0.0 26.940967945119528" Properties=species:S:1:pos:R:3:forces:R:3 tau=tau16 tau_p=1 tau_q=6 stage=B constraint=xy_fixed_z_free force_label=raw_dft energy=-15499.448729419784 free_energy=-15499.448729419784 stress="0.010344881850452223 -5.876208737276491e-05 0.0015011877008511037 -5.876208737276491e-05 0.01124008552527169 -0.0017729623549501412 0.0015011877008511037 -0.0017729623549501412 0.00041041645399415497" pbc="T T T"
Sr       0.00003612       0.00009431      10.40141478      -0.00087649       0.00196304       0.01151289
Sr       0.39399699       2.36455593      15.20314161      -0.15382370       0.04201105      -0.01139204
Ti       1.97047269       1.97057450      11.87135883       0.11256701      -0.13087095       0.00145139
Ti       2.36429575       0.39403080      16.67461653      -0.00458993       0.03171713      -0.00008690
O        0.00000902       1.97050521      12.08285827       0.15746207       0.09965004      -0.01676694
O        0.39428297       0.39409860      16.81349930       0.00214816       0.00206100      -0.00151335
O        1.97049401       3.94093312      11.92093351      -0.08330220      -0.15275644       0.01351038
O        2.36466641       2.36457436      16.80358514       0.01227985      -0.00371807      -0.00183654
O        1.97043419       1.97038596      10.04847288       0.01476585      -0.02498547       0.00672935
O        2.36463656       0.39404688      14.85543913      -0.05663035       0.13492867      -0.00160797
