10
Lattice="3.940949890606662 0.0 0.0 0.0 3.940949890606662 0.0 0.0 0.0 26.940967945119528" Properties=species:S:1:pos:R:3:forces:R:3 tau=tau77 tau_p=7 tau_q=7 stage=B constraint=xy_fixed_z_free force_label=raw_dft energy=-15497.667152362128 free_energy=-15497.667152362128 stress="0.013619950063868668 0.0017830620887173353 -0.008986926737572233 0.0017830620887173353 0.013277477273399273 -0.008981417791881037 -0.008986926737572233 -0.008981417791881037 -0.017575373070147907" pbc="T T T"
Sr       0.00003626       0.00009419      10.75260867      -0.00147556      -0.00138145       0.52186504
Sr       2.75856679       2.75865074      14.64522241       1.26482618       1.26253944       4.16754019
Ti       1.97047258       1.97057465      12.38212169      -1.23571537      -1.23528086      -3.76034636
Ti       0.78791569       0.78812574      16.28444791       0.06119483       0.06045178      -0.40845110
O        0.00000906       1.97050529      12.45001441      -0.88808731       0.67652923      -0.88116102
O        2.75885291       0.78819352      16.39256827      -0.01932158      -0.07391407      -0.13478160
O        1.97049386       3.94093294      12.44909065       0.67650686      -0.88496471      -0.87429695
O        0.78828653       2.75866926      16.37955485      -0.07574804      -0.01726959      -0.09685294
O        1.97043435       1.97038588      10.49176941      -0.15261220      -0.15230572       0.39096580
O        0.78825658       0.78814190      14.44792112       0.37043195       0.36559596       1.07551868
10
Lattice="3.940949890606662 0.0 0.0 0.0 3.940949890606662 0.0 0.0 0.0 26.940967945119528" Properties=species:S:1:pos:R:3:forces:R:3 tau=tau77 tau_p=7 tau_q=7 stage=B constraint=xy_fixed_z_free force_label=raw_dft energy=-15498.212527679552 free_energy=-15498.212527679552 stress="0.010405480253055386 0.0016884918543517914 -0.007094603892646163 0.0016884918543517914 0.010108915343345964 -0.0070872586317245675 -0.007094603892646163 -0.0070872586317245675 -0.02073383526643402" pbc="T T T"
Sr       0.00003612       0.00009431      10.76334959      -0.00153058      -0.00145704       0.61167110
Sr       2.75856694       2.75865092      14.73099784       0.91725751       0.91525410       2.71790184
Ti       1.97047269       1.97057450      12.30472757      -0.84739369      -0.84700931      -1.17351113
Ti       0.78791578       0.78812580      16.27604129       0.05193603       0.05113693       0.04484441
O        0.00000902       1.97050521      12.43187866      -0.83356142       0.63270169      -0.96844714
O        2.75885292       0.78819359      16.38979429      -0.02047164      -0.06484914      -0.00817482
O        1.97049401       3.94093312      12.43109610       0.63251709      -0.83087436      -0.96286965
O        0.78828644       2.75866935      16.37756141      -0.06624113      -0.01871506       0.03563600
O        1.97043419       1.97038596      10.49981614      -0.13950472      -0.13933965      -0.93491584
O        0.78825659       0.78814187      14.47005707       0.30699280       0.30315235       0.63786550
10
Lattice="3.940949890606662 0.0 0.0 0.0 3.940949890606662 0.0 0.0 0.0 26.940967945119528" Properties=species:S:1:pos:R:3:forces:R:3 tau=tau77 tau_p=7 tau_q=7 stage=B constraint=xy_fixed_z_free force_label=raw_dft energy=-15498.536720161275 free_energy=-15498.536720161275 stress="0.006662151655887221 0.0014745611300103192 -0.005865190845894098 0.0014745611300103192 0.006437203040163356 -0.005857845584972502 -0.005865190845894098 -0.005857845584972502 -0.02166851971870706" pbc="T T T"
Sr       0.00003612       0.00009431      10.78259477       0.00301282       0.00308301       0.33946866
Sr       2.75856694       2.75865092      14.82535049       0.69855330       0.69704664       1.42169124
Ti       1.97047269       1.97057450      12.25461366      -0.62811587      -0.62782354      -0.07966409
Ti       0.78791578       0.78812580      16.27531651       0.04301636       0.04209076       0.34642761
O        0.00000902       1.97050521      12.40114565      -0.77094014       0.57631303      -0.79082454
O        2.75885292       0.78819359      16.38892604      -0.01832451      -0.05514939       0.20951097
O        1.97049401       3.94093312      12.40054864       0.57620993      -0.76891283      -0.78667915
O        0.78828644       2.75866935      16.37807422      -0.05617192      -0.01676385       0.25601657
O        1.97043419       1.97038596      10.47608339      -0.12107222      -0.12093621      -1.23331499
O        0.78825659       0.78814187      14.49266658       0.27383200       0.27105238       0.31736798
10
Lattice="3.940949890606662 0.0 0.0 0.0 3.940949890606662 0.0 0.0 0.0 26.940967945119528" Properties=species:S:1:pos:R:3:forces:R:3 tau=tau77 tau_p=7 tau_q=7 stage=B constraint=xy_fixed_z_free force_label=raw_dft energy=-15498.755139136718 free_energy=-15498.755139136718 stress="0.0011660601713033036 0.0012092135792176777 -0.00470555777789719 0.0012092135792176777 0.001048535996557774 -0.004700966989821193 -0.00470555777789719 -0.004700966989821193 -0.019645818492422668" pbc="T T T"
Sr       0.00003612       0.00009431      10.80788907       0.00976685       0.00981467      -0.31591453
Sr       2.75856694       2.75865092      14.95227161       0.49974558       0.49886240      -0.10950688
Ti       1.97047269       1.97057450      12.20427329      -0.45521407      -0.45510351      -0.12747812
Ti       0.78791578       0.78812580      16.28716735       0.03360766       0.03240464       0.45553957
O        0.00000902       1.97050521      12.34916616      -0.66973484       0.49012297      -0.37916855
O        2.75885292       0.78819359      16.39693251      -0.01484349      -0.04213370       0.58565179
O        1.97049401       3.94093312      12.34886795       0.49018287      -0.66862540      -0.37709393
O        0.78828644       2.75866935      16.38889503      -0.04282969      -0.01344995       0.62689511
O        1.97043419       1.97038596      10.41716411      -0.09570906      -0.09552831      -0.52810022
O        0.78825659       0.78814187      14.52269288       0.24502819       0.24363619       0.16917576
10
Lattice="3.940949890606662 0.0 0.0 0.0 3.940949890606662 0.0 0.0 0.0 26.940967945119528" Properties=species:S:1:pos:R:3:forces:R:3 tau=tau77 tau_p=7 tau_q=7 stage=B constraint=xy_fixed_z_free force_label=raw_dft energy=-15498.8056970716 free_energy=-15498.8056970716 stress="6.059840260316382e-05 0.0011054617687001399 -0.004397974976805373 0.0011054617687001399 -2.2953940379986292e-05 -0.0043943023463445755 -0.004397974976805373 -0.0043943023463445755 -0.01821808340078752" pbc="T T T"
Sr       0.00003612       0.00009431      10.80673356       0.01152986       0.01157716      -0.52203267
Sr       2.75856694       2.75865092      14.98703096       0.44883259       0.44820242      -0.42342907
Ti       1.97047269       1.97057450      12.18208283      -0.41438187      -0.41441632      -0.19736251
Ti       0.78791578       0.78812580      16.30072710       0.03146285       0.03027705       0.43998928
O        0.00000902       1.97050521      12.32563315      -0.62840024       0.45546115      -0.24693363
O        2.75885292       0.78819359      16.41351390      -0.01381042      -0.03771731       0.62848894
O        1.97049401       3.94093312      12.32547072       0.45558431      -0.62766079      -0.24577355
O        0.78828644       2.75866935      16.40725652      -0.03826084      -0.01254056       0.66146231
O        1.97043419       1.97038596      10.39072165      -0.08766999      -0.08746456      -0.28664098
O        0.78825659       0.78814187      14.53614957       0.23511350       0.23428175       0.19223187
10
Lattice="3.940949890606662 0.0 0.0 0.0 3.940949890606662 0.0 0.0 0.0 26.940967945119528" Properties=species:S:1:pos:R:3:forces:R:3 tau=tau77 tau_p=7 tau_q=7 stage=B constraint=xy_fixed_z_free force_label=raw_dft energy=-15498.883031008203 free_energy=-15498.883031008203 stress="-0.00025708413225584645 0.0009576383926530282 -0.004058256659181576 0.0009576383926530282 -0.0002993193825550213 -0.004057338501566378 -0.004058256659181576 -0.004057338501566378 -0.015934625411786484" pbc="T T T"
Sr       0.00003612       0.00009431      10.79291039       0.01308229       0.01312137      -0.71894369
Sr       2.75856694       2.75865092      15.02248090       0.39442985       0.39411952      -0.60736424
Ti       1.97047269       1.97057450      12.14762150      -0.37181134      -0.37195815      -0.23628772
Ti       0.78791578       0.78812580      16.32703414       0.02974843       0.02866292       0.42971798
O        0.00000902       1.97050521      12.29078011      -0.57215941       0.40820685      -0.10815088
O        2.75885292       0.78819359      16.44810045      -0.01265317      -0.03250389       0.58105414
O        1.97049401       3.94093312      12.29081134       0.40841742      -0.57190153      -0.10827867
O        0.78828644       2.75866935      16.44475499      -0.03280625      -0.01161187       0.59881275
O        1.97043419       1.97038596      10.35248636      -0.07792525      -0.07769925      -0.06561532
O        0.78825659       0.78814187      14.55833978       0.22167717       0.22156404       0.23505514
10
Lattice="3.940949890606662 0.0 0.0 0.0 3.940949890606662 0.0 0.0 0.0 26.940967945119528" Properties=species:S:1:pos:R:3:forces:R:3 tau=tau77 tau_p=7 tau_q=7 stage=B constraint=xy_fixed_z_free force_label=raw_dft energy=-15498.982946991993 free_energy=-15498.982946991993 stress="0.0003791990950773736 0.0007795158153043345 -0.00370017518925379 0.0007795158153043345 0.0003929714593053653 -0.0037010933468689896 -0.00370017518925379 -0.0037010933468689896 -0.012919395803471484" pbc="T T T"
Sr       0.00003612       0.00009431      10.76204042       0.01388884       0.01393204      -0.86378628
Sr       2.75856694       2.75865092      15.05765033       0.33994046       0.34000294      -0.63503831
Ti       1.97047269       1.97057450      12.10035902      -0.32907498      -0.32938531      -0.22156739
Ti       0.78791578       0.78812580      16.36850493       0.02865906       0.02773603       0.41036889
O        0.00000902       1.97050521      12.24467899      -0.50457668       0.35208301       0.01041014
O        2.75885292       0.78819359      16.50153338      -0.01124266      -0.02705186       0.44404083
O        1.97049401       3.94093312      12.24494745       0.35235092      -0.50481271       0.00875178
O        0.78828644       2.75866935      16.50210792      -0.02706292      -0.01048496       0.44104369
O        1.97043419       1.97038596      10.30235360      -0.06713073      -0.06689008       0.10565563
O        0.78825659       0.78814187      14.59114392       0.20424844       0.20487116       0.30012076
10
Lattice="3.940949890606662 0.0 0.0 0.0 3.940949890606662 0.0 0.0 0.0 26.940967945119528" Properties=species:S:1:pos:R:3:forces:R:3 tau=tau77 tau_p=7 tau_q=7 stage=B constraint=xy_fixed_z_free force_label=raw_dft energy=-15499.10368322192 free_energy=-15499.10368322192 stress="0.0022127598526306786 0.0005637487757324633 -0.003287004262414037 0.0005637487757324633 0.0023183479783786157 -0.003288840577644436 -0.003287004262414037 -0.003288840577644436 -0.008971318058113843" pbc="T T T"
Sr       0.00003612       0.00009431      10.70335475       0.01329055       0.01333837      -0.92422057
Sr       2.75856694       2.75865092      15.09729705       0.28252284       0.28295659      -0.49550069
Ti       1.97047269       1.97057450      12.03301592      -0.28262594      -0.28305943      -0.14515986
Ti       0.78791578       0.78812580      16.43447190       0.02776072       0.02707654       0.37571993
O        0.00000902       1.97050521      12.18029073      -0.42166709       0.28514768       0.09551391
O        2.75885292       0.78819359      16.58231152      -0.00957839      -0.02114244       0.21761920
O        1.97049401       3.94093312      12.18084927       0.28543873      -0.42235820       0.09213163
O        0.78828644       2.75866935      16.58813732      -0.02082825      -0.00918681       0.18866909
O        1.97043419       1.97038596      10.23269345      -0.05451176      -0.05425568       0.21827355
O        0.78825659       0.78814187      14.64289805       0.18019859       0.18148337       0.37695381
10
Lattice="3.940949890606662 0.0 0.0 0.0 3.940949890606662 0.0 0.0 0.0 26.940967945119528" Properties=species:S:1:pos:R:3:forces:R:3 tau=tau77 tau_p=7 tau_q=7 stage=B constraint=xy_fixed_z_free force_label=raw_dft energy=-15499.225848865843 free_energy=-15499.225848865843 stress="0.005648505648707026 0.0003241096381654065 -0.002784772046899937 0.0003241096381654065 0.005914771357114867 -0.0027884446773607345 -0.002784772046899937 -0.0027884446773607345 -0.004008676147960806" pbc="T T T"
Sr       0.00003612       0.00009431      10.59584877       0.01021911       0.01027516      -0.82029324
Sr       2.75856694       2.75865092      15.14878692       0.22144397       0.22220193      -0.15966782
Ti       1.97047269       1.97057450      11.93387449      -0.22608507      -0.22663554       0.00690573
Ti       0.78791578       0.78812580      16.54204317       0.02324406       0.02292730       0.30567537
O        0.00000902       1.97050521      12.08584776      -0.32205895       0.20887051       0.11038543
O        2.75885292       0.78819359      16.70446891      -0.00732096      -0.01520448      -0.08390075
O        1.97049401       3.94093312      12.08674368       0.20915539      -0.32306014       0.10533964
O        0.78828644       2.75866935      16.71718143      -0.01459050      -0.00733433      -0.14141376
O        1.97043419       1.97038596      10.13124833      -0.04000585      -0.03973897       0.23680400
O        0.78825659       0.78814187      14.72927651       0.14599881       0.14769831       0.44016541
10
Lattice="3.940949890606662 0.0 0.0 0.0 3.940949890606662 0.0 0.0 0.0 26.940967945119528" Properties=species:S:1:pos:R:3:forces:R:3 tau=tau77 tau_p=7 tau_q=7 stage=B constraint=xy_fixed_z_free force_label=raw_dft energy=-15499.285987248697 free_energy=-15499.285987248697 stress="0.00867383499078922 0.00018454968065508977 -0.002439544783584943 0.00018454968065508977 0.009067724607709785 -0.0024422992564305415 -0.002439544783584943 -0.0024422992564305415 -0.0008694952615938809" pbc="T T T"
Sr       0.00003612       0.00009431      10.48908003       0.00636862       0.00641927      -0.57538075
Sr       2.75856694       2.75865092      15.19222709       0.18441880       0.18528089       0.13225266
Ti       1.97047269       1.97057450      11.85413113      -0.18896271      -0.18946151       0.12392794
Ti       0.78791578       0.78812580      16.63932285       0.02075703       0.02068273       0.19781271
O        0.00000902       1.97050521      12.00797898      -0.25604819       0.16090169       0.05548723
O        2.75885292       0.78819359      16.80262793      -0.00570656      -0.01195254      -0.23403364
O        1.97049401       3.94093312      12.00903237       0.16114543      -0.25704604       0.04991051
O        0.78828644       2.75866935      16.81961241      -0.01117504      -0.00595647      -0.30417513
O        1.97043419       1.97038596      10.04921012      -0.03098385      -0.03073034       0.15158479
O        0.78825659       0.78814187      14.81209706       0.12018622       0.12186232       0.40261393
10
Lattice="3.940949890606662 0.0 0.0 0.0 3.940949890606662 0.0 0.0 0.0 26.940967945119528" Properties=species:S:1:pos:R:3:forces:R:3 tau=tau77 tau_p=7 tau_q=7 stage=B constraint=xy_fixed_z_free force_label=raw_dft energy=-15499.314516751996 free_energy=-15499.314516751996 stress="0.010563403362869692 0.00011385154428473201 -0.0022228595863978727 0.00011385154428473201 0.01100228270293503 -0.0022246959016282717 -0.0022228595863978727 -0.0022246959016282717 0.0005573216724260672" pbc="T T T"
Sr       0.00003612       0.00009431      10.40430424       0.00335092       0.00341622      -0.31966577
Sr       2.75856694       2.75865092      15.22933864       0.16323008       0.16407161       0.28807437
Ti       1.97047269       1.97057450      11.80213644      -0.16674118      -0.16724332       0.15486114
Ti       0.78791578       0.78812580      16.71066282       0.01877600       0.01880273       0.07866624
O        0.00000902       1.97050521      11.95383929      -0.21585157       0.13313481       0.00376384
O        2.75885292       0.78819359      16.86455276      -0.00465652      -0.01022836      -0.23539684
O        1.97049401       3.94093312      11.95487316       0.13337778      -0.21673191      -0.00143365
O        0.78828644       2.75866935      16.88282660      -0.00943106      -0.00494140      -0.30726843
O        1.97043419       1.97038596       9.99398234      -0.02577068      -0.02551511       0.05637272
O        0.78825659       0.78814187      14.87880366       0.10371624       0.10523474       0.28202636
10
Lattice="3.940949890606662 0.0 0.0 0.0 3.940949890606662 0.0 0.0 0.0 26.940967945119528" Properties=species:S:1:pos:R:3:forces:R:3 tau=tau77 tau_p=7 tau_q=7 stage=B constraint=xy_fixed_z_free force_label=raw_dft energy=-15499.330885487847 free_energy=-15499.330885487847 stress="0.01145401624961316 7.620708206155449e-05 -0.002067690949429165 7.620708206155449e-05 0.011864432703607316 -0.002069527264659564 -0.002067690949429165 -0.002069527264659564 0.0008961218324346649" pbc="T T T"
Sr       0.00003612       0.00009431      10.33985286       0.00125341       0.00135446      -0.09744610
Sr       2.75856694       2.75865092      15.26553653       0.14866864       0.14946208       0.31270734
Ti       1.97047269       1.97057450      11.76950195      -0.15219799      -0.15252298       0.10830901
Ti       0.78791578       0.78812580      16.76029745       0.01800286       0.01790568      -0.01809979
O        0.00000902       1.97050521      11.91632613      -0.18923062       0.11527978      -0.02471447
O        2.75885292       0.78819359      16.90023062      -0.00414256      -0.00922846      -0.14653308
O        1.97049401       3.94093312      11.91721111       0.11560297      -0.18998678      -0.02889586
O        0.78828644       2.75866935      16.91742606      -0.00843502      -0.00428474      -0.21234612
O        1.97043419       1.97038596       9.95731321      -0.02241693      -0.02214800      -0.01451413
O        0.78825659       0.78814187      14.93162404       0.09289524       0.09416897       0.12153373
10
Lattice="3.940949890606662 0.0 0.0 0.0 3.940949890606662 0.0 0.0 0.0 26.940967945119528" Properties=species:S:1:pos:R:3:forces:R:3 tau=tau77 tau_p=7 tau_q=7 stage=B constraint=xy_fixed_z_free force_label=raw_dft energy=-15499.339068903375 free_energy=-15499.339068903375 stress="0.01143748941253957 5.6925772142366004e-05 -0.0019648572965268265 5.6925772142366004e-05 0.011772616942087368 -0.0019648572965268265 -0.0019648572965268265 -0.0019648572965268265 0.0005104956340508951" pbc="T T T"
Sr       0.00003612       0.00009431      10.30254293       0.00015632       0.00022780       0.03300474
Sr       2.75856694       2.75865092      15.29777411       0.13885448       0.13940650       0.22899967
Ti       1.97047269       1.97057450      11.75297748      -0.14272117      -0.14310117       0.04784360
Ti       0.78791578       0.78812580      16.78591972       0.01735495       0.01719682      -0.05825194
O        0.00000902       1.97050521      11.89505015      -0.17338440       0.10504653      -0.03122116
O        2.75885292       0.78819359      16.91432936      -0.00390808      -0.00867593      -0.02907223
O        1.97049401       3.94093312      11.89572834       0.10520466      -0.17390556      -0.03433734
O        0.78828644       2.75866935      16.92888530      -0.00803495      -0.00392633      -0.08694905
O        1.97043419       1.97038596       9.93751680      -0.02046624      -0.02023330      -0.04559517
O        0.78825659       0.78814187      14.96459578       0.08694442       0.08796412      -0.02442137
10
Lattice="3.940949890606662 0.0 0.0 0.0 3.940949890606662 0.0 0.0 0.0 26.940967945119528" Properties=species:S:1:pos:R:3:forces:R:3 tau=tau77 tau_p=7 tau_q=7 stage=B constraint=xy_fixed_z_free force_label=raw_dft energy=-15499.34181208298 free_energy=-15499.34181208298 stress="0.010953620349329458 5.50894569119671e-05 -0.0019134404700756574 5.50894569119671e-05 0.0112180497425069 -0.0019134404700756574 -0.0019134404700756574 -0.0019134404700756574 7.712523967675394e-05" pbc="T T T"
Sr       0.00003612       0.00009431      10.29327594      -0.00013935      -0.00006505       0.05255978
Sr       2.75856694       2.75865092      15.31730845       0.13375856       0.13418253       0.10600196
Ti       1.97047269       1.97057450      11.74850081      -0.13852975      -0.13889074       0.00518206
Ti       0.78791578       0.78812580      16.79056383       0.01682736       0.01656330      -0.05838153
O        0.00000902       1.97050521      11.88822831      -0.16708108       0.10124181      -0.02046007
O        2.75885292       0.78819359      16.91547720      -0.00387697      -0.00833654       0.04269214
O        1.97049401       3.94093312      11.88874581       0.10137628      -0.16747163      -0.02282548
O        0.78828644       2.75866935      16.92737823      -0.00779970      -0.00375741      -0.00612617
O        1.97043419       1.97038596       9.93155328      -0.01967305      -0.01944114      -0.03366602
O        0.78825659       0.78814187      14.97428811       0.08513745       0.08597486      -0.06497666
10
Lattice="3.940949890606662 0.0 0.0 0.0 3.940949890606662 0.0 0.0 0.0 26.940967945119528" Properties=species:S:1:pos:R:3:forces:R:3 tau=tau77 tau_p=7 tau_q=7 stage=B constraint=xy_fixed_z_free force_label=raw_dft energy=-15499.342704888488 free_energy=-15499.342704888488 stress="0.010588193618480077 5.6925772142366004e-05 -0.0018868138992348734 5.6925772142366004e-05 0.010805796973282348 -0.0018868138992348734 -0.0018868138992348734 -0.0018868138992348734 -8.814313105914735e-05" pbc="T T T"
Sr       0.00003612       0.00009431      10.29341006      -0.00012624      -0.00005734       0.02770698
Sr       2.75856694       2.75865092      15.32732352       0.13097122       0.13132218       0.02891437
Ti       1.97047269       1.97057450      11.74612010      -0.13648007      -0.13682357      -0.01014249
Ti       0.78791578       0.78812580      16.78966190       0.01644555       0.01612390      -0.03413859
O        0.00000902       1.97050521      11.88543976      -0.16459765       0.09987836      -0.00977765
O        2.75885292       0.78819359      16.91676385      -0.00388031      -0.00810283       0.05567364
O        1.97049401       3.94093312      11.88586001       0.10000640      -0.16490953      -0.01170520
O        0.78828644       2.75866935      16.92673064      -0.00763386      -0.00368825       0.01403591
O        1.97043419       1.97038596       9.92886725      -0.01932827      -0.01909430      -0.01124755
O        0.78825659       0.78814187      14.97514287       0.08462298       0.08535111      -0.04931942
10
Lattice="3.940949890606662 0.0 0.0 0.0 3.940949890606662 0.0 0.0 0.0 26.940967945119528" Properties=species:S:1:pos:R:3:forces:R:3 tau=tau77 tau_p=7 tau_q=7 stage=B constraint=xy_fixed_z_free force_label=raw_dft energy=-15499.343116460668 free_energy=-15499.343116460668 stress="0.010440370242432965 5.6925772142366004e-05 -0.0018592691707788897 5.6925772142366004e-05 0.010619410977396859 -0.0018583510131636902 -0.0018592691707788897 -0.0018583510131636902 -4.0398935068775876e-05" pbc="T T T"
Sr       0.00003612       0.00009431      10.29105157      -0.00011699      -0.00005091       0.00477480
Sr       2.75856694       2.75865092      15.33545097       0.12818081       0.12846928      -0.00799639
Ti       1.97047269       1.97057450      11.74086999      -0.13428075      -0.13459776      -0.01124909
Ti       0.78791578       0.78812580      16.79189067       0.01615373       0.01580174      -0.01104392
O        0.00000902       1.97050521      11.88039247      -0.16178255       0.09823182      -0.00307401
O        2.75885292       0.78819359      16.92285402      -0.00384817      -0.00785086       0.04148244
O        1.97049401       3.94093312      11.88073234       0.09835781      -0.16202604      -0.00464161
O        0.78828644       2.75866935      16.93109530      -0.00742792      -0.00361266       0.00680442
O        1.97043419       1.97038596       9.92366571      -0.01893000      -0.01869449       0.00417059
O        0.78825659       0.78814187      14.97731692       0.08369429       0.08432987      -0.01922697
10
Lattice="3.940949890606662 0.0 0.0 0.0 3.940949890606662 0.0 0.0 0.0 26.940967945119528" Properties=species:S:1:pos:R:3:forces:R:3 tau=tau77 tau_p=7 tau_q=7 stage=B constraint=xy_fixed_z_free force_label=raw_dft energy=-15499.343290069297 free_energy=-15499.343290069297 stress="0.010464242340428151 5.50894569119671e-05 -0.0018317244423229062 5.50894569119671e-05 0.010609311243629665 -0.0018308062847077066 -0.0018317244423229062 -0.0018308062847077066 8.722497344394792e-05" pbc="T T T"
Sr       0.00003612       0.00009431      10.28554059      -0.00015118      -0.00008613      -0.00314497
Sr       2.75856694       2.75865092      15.34209328       0.12562899       0.12587221      -0.01439535
Ti       1.97047269       1.97057450      11.73420813      -0.13198270      -0.13228377      -0.00548262
Ti       0.78791578       0.78812580      16.79707087       0.01584391       0.01549115       0.00303724
O        0.00000902       1.97050521      11.87397167      -0.15868283       0.09632072      -0.00094128
O        2.75885292       0.78819359      16.93129776      -0.00378981      -0.00761792       0.02082748
O        1.97049401       3.94093312      11.87423896       0.09644491      -0.15886846      -0.00217695
O        0.78828644       2.75866935      16.93797333      -0.00722840      -0.00353012      -0.00729113
O        1.97043419       1.97038596       9.91713621      -0.01851554      -0.01828363       0.00771948
O        0.78825659       0.78814187      14.98178916       0.08243291       0.08298570       0.00184811
