10
Lattice="3.940949890606662 0.0 0.0 0.0 3.940949890606662 0.0 0.0 0.0 26.940967945119528" Properties=species:S:1:pos:R:3:forces:R:3 tau=tau39 tau_p=3 tau_q=9 stage=A constraint=rigid_scf force_label=raw_dft energy=-15498.575316243923 free_energy=-15498.575316243923 stress="0.015073393568729398 -0.0012633848785144456 0.016219254272498315 -0.0012633848785144456 0.007175401762783715 -0.003253032430651657 0.016219254272498315 -0.003253032430651657 -0.016880327755441918" pbc="T T T"
Sr       0.00003626       0.00009419      10.75260867       0.00582175       0.00339103       0.28860813
Sr       1.18218684       3.54684071      14.64522241      -0.90406621       0.52886332       3.06291843
Ti       1.97047258       1.97057465      12.38212169       0.62039099      -0.75508312      -1.57466493
Ti       3.15248562       1.57631572      16.28444791      -0.17206568       0.01534409       0.03867685
O        0.00000906       1.97050529      12.45001441       1.94615746       0.60690324      -2.07823400
O        1.18247295       1.57638350      16.39256827       0.01364150      -0.04766491      -0.18384956
O        1.97049386       3.94093294      12.44909065      -0.04581063      -0.31483904      -0.77382492
O        3.15285647       3.54685924      16.37955485      -0.04895098       0.00429246      -0.03141939
O        1.97043435       1.97038588      10.49176941       0.28434601      -0.08840918       0.25460015
O        3.15282651       1.57633188      14.44792112      -1.69946448       0.04720185       0.99718925
