10
Lattice="3.940949890606662 0.0 0.0 0.0 3.940949890606662 0.0 0.0 0.0 26.940967945119528" Properties=species:S:1:pos:R:3:forces:R:3 tau=tau90 tau_p=9 tau_q=0 stage=B constraint=xy_fixed_z_free force_label=raw_dft energy=-15500.494066976102 free_energy=-15500.494066976102 stress="0.009553429986150294 -0.0 -0.00705053232711659 -0.0 0.008762896279463566 0.0 -0.00705053232711659 0.0 -0.0008336871146011021" pbc="T T T"
Sr       0.00003626       0.00009419      10.75260867       0.00263641       0.00002237       0.05742585
Sr       3.54675677       3.94093570      14.64522241       0.30360795      -0.00001106       0.34511429
Ti       1.97047258       1.97057465      12.38212169      -0.24026419      -0.00016147      -0.04295388
Ti       1.57610567       1.97041071      16.28444791       0.04980330      -0.00010079      -0.00018023
O        0.00000906       1.97050529      12.45001441      -0.98603066      -0.00010516      -0.29633995
O        3.54704288       1.97047849      16.39256827       0.01069965       0.00001517      -0.02938000
O        1.97049386       3.94093294      12.44909065       0.22502526       0.00001003      -0.03860409
O        1.57647651       0.00000434      16.37955485       0.02928564       0.00007893       0.01116013
O        1.97043435       1.97038588      10.49176941      -0.17921669       0.00013421       0.03987164
O        1.57644656       1.97042687      14.44792112       0.78445360       0.00011750      -0.04611402
10
Lattice="3.940949890606662 0.0 0.0 0.0 3.940949890606662 0.0 0.0 0.0 26.940967945119528" Properties=species:S:1:pos:R:3:forces:R:3 tau=tau90 tau_p=9 tau_q=0 stage=B constraint=xy_fixed_z_free force_label=raw_dft energy=-15500.498121200184 free_energy=-15500.498121200184 stress="0.009313790848583239 -0.0 -0.006953207619905448 -0.0 0.00857283765311728 0.0 -0.006953207619905448 0.0 -0.0009025489357410611" pbc="T T T"
Sr       0.00003612       0.00009431      10.75379064       0.00261070       0.00000848       0.04590653
Sr       3.54675692       3.94093589      14.65232574       0.29447513      -0.00002905       0.27597141
Ti       1.97047269       1.97057450      12.38123790      -0.23449386      -0.00016172      -0.07768048
Ti       1.57610576       1.97041077      16.28444421       0.04955364      -0.00009847      -0.03880412
O        0.00000902       1.97050521      12.44391528      -0.97302911      -0.00009410      -0.24900106
O        3.54704290       1.97047857      16.39196364       0.01049062       0.00001671      -0.01468100
O        1.97049401       3.94093312      12.44829610       0.22930538       0.00001208      -0.01463009
O        1.57647643       0.00000441      16.37978450       0.02910772       0.00007482       0.02515824
O        1.97043419       1.97038596      10.49259001      -0.17960930       0.00013833       0.02269693
O        1.57644658       1.97042684      14.44697194       0.77158934       0.00013241       0.02506363
10
Lattice="3.940949890606662 0.0 0.0 0.0 3.940949890606662 0.0 0.0 0.0 26.940967945119528" Properties=species:S:1:pos:R:3:forces:R:3 tau=tau90 tau_p=9 tau_q=0 stage=B constraint=xy_fixed_z_free force_label=raw_dft energy=-15500.501903990713 free_energy=-15500.501903990713 stress="0.009082415129552976 -0.0 -0.006845783178927112 -0.0 0.008400224021459785 0.0 -0.006845783178927112 0.0 -0.001061390203170566" pbc="T T T"
Sr       0.00003612       0.00009431      10.75509043       0.00255079       0.00002057       0.03353284
Sr       3.54675692       3.94093589      14.66013909       0.28466971      -0.00002134       0.21642467
Ti       1.97047269       1.97057450      12.37927832      -0.23050505      -0.00015735      -0.08532129
Ti       1.57610576       1.97041077      16.28355946       0.04914715      -0.00008716      -0.02857318
O        0.00000902       1.97050521      12.43693209      -0.95600583      -0.00009976      -0.20160148
O        3.54704290       1.97047857      16.39149923       0.01011960       0.00001337      -0.00597062
O        1.97049401       3.94093312      12.44779205       0.23278665       0.00001260       0.00291357
O        1.57647643       0.00000441      16.38040697       0.02889071       0.00007019       0.03258308
O        1.97043419       1.97038596      10.49328343      -0.17934010       0.00013447      -0.00491955
O        1.57644658       1.97042684      14.44733889       0.75768636       0.00011416       0.04093171
10
Lattice="3.940949890606662 0.0 0.0 0.0 3.940949890606662 0.0 0.0 0.0 26.940967945119528" Properties=species:S:1:pos:R:3:forces:R:3 tau=tau90 tau_p=9 tau_q=0 stage=B constraint=xy_fixed_z_free force_label=raw_dft energy=-15500.50622080465 free_energy=-15500.50622080465 stress="0.008695870773554007 -0.0 -0.006685105596267208 -0.0 0.008108249899826357 0.0 -0.006685105596267208 0.0 -0.0013249014387328088" pbc="T T T"
Sr       0.00003612       0.00009431      10.75694867       0.00253331       0.00001543       0.01483449
Sr       3.54675692       3.94093589      14.67185912       0.27005736      -0.00002623       0.13394599
Ti       1.97047269       1.97057450      12.37555134      -0.22581768      -0.00015504      -0.07941032
Ti       1.57610576       1.97041077      16.28240544       0.04849640      -0.00007662      -0.00384380
O        0.00000902       1.97050521      12.42625520      -0.92946973      -0.00009513      -0.13577379
O        3.54704290       1.97047857      16.39098430       0.00957196       0.00001131       0.00624135
O        1.97049401       3.94093312      12.44752543       0.23723466       0.00001311       0.01958538
O        1.57647643       0.00000441      16.38177331       0.02860507       0.00006556       0.04211801
O        1.97043419       1.97038596      10.49350628      -0.17839085       0.00013293      -0.04132123
O        1.57644658       1.97042684      14.44851088       0.73717950       0.00011441       0.04362416
10
Lattice="3.940949890606662 0.0 0.0 0.0 3.940949890606662 0.0 0.0 0.0 26.940967945119528" Properties=species:S:1:pos:R:3:forces:R:3 tau=tau90 tau_p=9 tau_q=0 stage=B constraint=xy_fixed_z_free force_label=raw_dft energy=-15500.509758148493 free_energy=-15500.509758148493 stress="0.008134876470667142 -0.0 -0.006449139089160949 -0.0 0.007699669761062602 0.0 -0.006449139089160949 0.0 -0.0016122847722902373" pbc="T T T"
Sr       0.00003612       0.00009431      10.75947635       0.00255465       0.00000823      -0.01923622
Sr       3.54675692       3.94093589      14.68943915       0.24877763      -0.00003471       0.01651497
Ti       1.97047269       1.97057450      12.36896659      -0.22073486      -0.00014835      -0.05743459
Ti       1.57610576       1.97041077      16.28140827       0.04761914      -0.00005991       0.03020455
O        0.00000902       1.97050521      12.40979833      -0.88918543      -0.00009025      -0.04207970
O        3.54704290       1.97047857      16.39061727       0.00876643       0.00000848       0.02603525
O        1.97049401       3.94093312      12.44783394       0.24299933       0.00001568       0.03281602
O        1.57647643       0.00000441      16.38472570       0.02814895       0.00005451       0.05574460
O        1.97043419       1.97038596      10.49221148      -0.17619384       0.00013267      -0.08001042
O        1.57644658       1.97042684      14.45084288       0.70724800       0.00011390       0.03744555
10
Lattice="3.940949890606662 0.0 0.0 0.0 3.940949890606662 0.0 0.0 0.0 26.940967945119528" Properties=species:S:1:pos:R:3:forces:R:3 tau=tau90 tau_p=9 tau_q=0 stage=B constraint=xy_fixed_z_free force_label=raw_dft energy=-15500.510525645575 free_energy=-15500.510525645575 stress="0.007927372849632066 -0.0 -0.006342632805797812 -0.0 0.0075784729558562745 0.0 -0.006342632805797812 0.0 -0.0015801492557582562" pbc="T T T"
Sr       0.00003612       0.00009431      10.76004030       0.00256699       0.00000617      -0.03813177
Sr       3.54675692       3.94093589      14.69738782       0.23917327      -0.00003805      -0.02950392
Ti       1.97047269       1.97057450      12.36495962      -0.22025921      -0.00015529      -0.03908797
Ti       1.57610576       1.97041077      16.28189870       0.04743223      -0.00005708       0.03964872
O        0.00000902       1.97050521      12.40173237      -0.86980754      -0.00008562      -0.00459276
O        3.54704290       1.97047857      16.39109304       0.00839414       0.00000848       0.03458365
O        1.97049401       3.94093312      12.44866608       0.24512486       0.00001594       0.02674950
O        1.57647643       0.00000441      16.38733071       0.02790135       0.00005245       0.05932461
O        1.97043419       1.97038596      10.48974347      -0.17441155       0.00013550      -0.07718426
O        1.57644658       1.97042684      14.45246786       0.69388546       0.00011750       0.02819446
10
Lattice="3.940949890606662 0.0 0.0 0.0 3.940949890606662 0.0 0.0 0.0 26.940967945119528" Properties=species:S:1:pos:R:3:forces:R:3 tau=tau90 tau_p=9 tau_q=0 stage=B constraint=xy_fixed_z_free force_label=raw_dft energy=-15500.511044294553 free_energy=-15500.511044294553 stress="0.007900746278791282 -0.0 -0.006291215979346643 -0.0 0.007617035575694652 0.0 -0.006291215979346643 0.0 -0.0013552006400343907" pbc="T T T"
Sr       0.00003612       0.00009431      10.75931794       0.00256673       0.00000591      -0.04835525
Sr       3.54675692       3.94093589      14.70114433       0.23437019      -0.00003908      -0.04327424
Ti       1.97047269       1.97057450      12.36185627      -0.22212866      -0.00015838      -0.02082182
Ti       1.57610576       1.97041077      16.28331363       0.04759420      -0.00005579       0.03744169
O        0.00000902       1.97050521      12.39704734      -0.85867621      -0.00008382       0.00826430
O        3.54704290       1.97047857      16.39225895       0.00821287       0.00000797       0.03636414
O        1.97049401       3.94093312      12.44971671       0.24578846       0.00001517       0.01109714
O        1.57647643       0.00000441      16.39032381       0.02771906       0.00005476       0.05628402
O        1.97043419       1.97038596      10.48644477      -0.17269149       0.00013755      -0.05479355
O        1.57644658       1.97042684      14.45389621       0.68724456       0.00011570       0.01779383
10
Lattice="3.940949890606662 0.0 0.0 0.0 3.940949890606662 0.0 0.0 0.0 26.940967945119528" Properties=species:S:1:pos:R:3:forces:R:3 tau=tau90 tau_p=9 tau_q=0 stage=B constraint=xy_fixed_z_free force_label=raw_dft energy=-15500.511681313046 free_energy=-15500.511681313046 stress="0.008012761507845615 -0.0 -0.006257244147584264 -0.0 0.007808012359656137 0.0 -0.006257244147584264 0.0 -0.000886022098667471" pbc="T T T"
Sr       0.00003612       0.00009431      10.75691657       0.00253254       0.00000540      -0.05282229
Sr       3.54675692       3.94093589      14.70337200       0.23096657      -0.00003959      -0.03795977
Ti       1.97047269       1.97057450      12.35816796      -0.22643628      -0.00016147       0.00294211
Ti       1.57610576       1.97041077      16.28611035       0.04806832      -0.00005348       0.02641217
O        0.00000902       1.97050521      12.39270436      -0.84863116      -0.00008459       0.00955448
O        3.54704290       1.97047857      16.39466174       0.00808535       0.00000848       0.03199455
O        1.97049401       3.94093312      12.45109452       0.24578486       0.00001183      -0.01619692
O        1.57647643       0.00000441      16.39521783       0.02749358       0.00005425       0.04482744
O        1.97043419       1.97038596      10.48129123      -0.17035461       0.00014115      -0.01317588
O        1.57644658       1.97042684      14.45578342       0.68249136       0.00011801       0.00442358
10
Lattice="3.940949890606662 0.0 0.0 0.0 3.940949890606662 0.0 0.0 0.0 26.940967945119528" Properties=species:S:1:pos:R:3:forces:R:3 tau=tau90 tau_p=9 tau_q=0 stage=B constraint=xy_fixed_z_free force_label=raw_dft energy=-15500.512127579745 free_energy=-15500.512127579745 stress="0.008249646172567073 -0.0 -0.006254489674738665 -0.0 0.008110086215056758 0.0 -0.006254489674738665 0.0 -0.00032594595339580535" pbc="T T T"
Sr       0.00003612       0.00009431      10.75298801       0.00243715       0.00000617      -0.04467600
Sr       3.54675692       3.94093589      14.70305032       0.23038473      -0.00004011      -0.01424057
Ti       1.97047269       1.97057450      12.35539893      -0.23177724      -0.00015992       0.02099511
Ti       1.57610576       1.97041077      16.28949046       0.04864656      -0.00005965       0.01145992
O        0.00000902       1.97050521      12.39020063      -0.84329201      -0.00008613      -0.00000077
O        3.54704290       1.97047857      16.39780582       0.00806684       0.00000874       0.02077117
O        1.97049401       3.94093312      12.45178341       0.24519660       0.00000874      -0.04160713
O        1.57647643       0.00000441      16.40076492       0.02726269       0.00005888       0.02642451
O        1.97043419       1.97038596      10.47636804      -0.16834786       0.00014398       0.02625945
O        1.57644658       1.97042684      14.45746942       0.68142230       0.00011878      -0.00538595
10
Lattice="3.940949890606662 0.0 0.0 0.0 3.940949890606662 0.0 0.0 0.0 26.940967945119528" Properties=species:S:1:pos:R:3:forces:R:3 tau=tau90 tau_p=9 tau_q=0 stage=B constraint=xy_fixed_z_free force_label=raw_dft energy=-15500.512321324795 free_energy=-15500.512321324795 stress="0.008415832700918174 -0.0 -0.006268262038966656 -0.0 0.008292799580481448 0.0 -0.006268262038966656 0.0 -6.335287544876216e-05" pbc="T T T"
Sr       0.00003612       0.00009431      10.75011503       0.00233148       0.00000720      -0.03052337
Sr       3.54675692       3.94093589      14.70170792       0.23150239      -0.00003959       0.00343628
Ti       1.97047269       1.97057450      12.35497491      -0.23443190      -0.00015838       0.02062847
Ti       1.57610576       1.97041077      16.29123370       0.04891987      -0.00006222       0.00457425
O        0.00000902       1.97050521      12.38993181      -0.84323905      -0.00008793      -0.00612437
O        3.54704290       1.97047857      16.39967437       0.00811183       0.00000951       0.01145246
O        1.97049401       3.94093312      12.45107481       0.24484590       0.00000643      -0.04521028
O        1.57647643       0.00000441      16.40364848       0.02712077       0.00006145       0.01381119
O        1.97043419       1.97038596      10.47491111      -0.16783699       0.00014424       0.03329810
O        1.57644658       1.97042684      14.45804783       0.68267623       0.00011930      -0.00534275
10
Lattice="3.940949890606662 0.0 0.0 0.0 3.940949890606662 0.0 0.0 0.0 26.940967945119528" Properties=species:S:1:pos:R:3:forces:R:3 tau=tau90 tau_p=9 tau_q=0 stage=B constraint=xy_fixed_z_free force_label=raw_dft energy=-15500.512489355093 free_energy=-15500.512489355093 stress="0.008576510283578078 -0.0 -0.0062801980879642495 -0.0 0.00845806795121735 0.0 -0.0062801980879642495 0.0 0.00012854206612792322" pbc="T T T"
Sr       0.00003612       0.00009431      10.74680586       0.00217412       0.00000823      -0.00993243
Sr       3.54675692       3.94093589      14.70044897       0.23263830      -0.00003805       0.01722999
Ti       1.97047269       1.97057450      12.35526935      -0.23635097      -0.00015658       0.00963727
Ti       1.57610576       1.97041077      16.29277551       0.04910704      -0.00006453       0.00039106
O        0.00000902       1.97050521      12.38978375      -0.84367151      -0.00009025      -0.00667947
O        3.54704290       1.97047857      16.40156473       0.00814551       0.00000977       0.00139791
O        1.97049401       3.94093312      12.44911398       0.24483330       0.00000489      -0.03601858
O        1.57647643       0.00000441      16.40640146       0.02691636       0.00006402       0.00071374
O        1.97043419       1.97038596      10.47470533      -0.16778762       0.00014424       0.02286482
O        1.57644658       1.97042684      14.45845103       0.68399546       0.00011853       0.00039595
10
Lattice="3.940949890606662 0.0 0.0 0.0 3.940949890606662 0.0 0.0 0.0 26.940967945119528" Properties=species:S:1:pos:R:3:forces:R:3 tau=tau90 tau_p=9 tau_q=0 stage=B constraint=xy_fixed_z_free force_label=raw_dft energy=-15500.512565683026 free_energy=-15500.512565683026 stress="0.008619663691492453 -0.0 -0.006275607299888252 -0.0 0.008499385043901325 0.0 -0.006275607299888252 0.0 0.00015884126742950514" pbc="T T T"
Sr       0.00003612       0.00009431      10.74505518       0.00207282       0.00000797       0.00237467
Sr       3.54675692       3.94093589      14.70070864       0.23224878      -0.00003959       0.01617352
Ti       1.97047269       1.97057450      12.35552992      -0.23665051      -0.00015427      -0.00124724
Ti       1.57610576       1.97041077      16.29342128       0.04911064      -0.00006582       0.00063532
O        0.00000902       1.97050521      12.38920403      -0.84259319      -0.00008999      -0.00008665
O        3.54704290       1.97047857      16.40246525       0.00812469       0.00001003      -0.00230037
O        1.97049401       3.94093312      12.44718659       0.24522154       0.00000489      -0.02205081
O        1.57647643       0.00000441      16.40773743       0.02675181       0.00006453      -0.00464753
O        1.97043419       1.97038596      10.47527569      -0.16787555       0.00014424       0.00603772
O        1.57644658       1.97042684      14.45873597       0.68358922       0.00011801       0.00511135
