10
Lattice="3.940949890606662 0.0 0.0 0.0 3.940949890606662 0.0 0.0 0.0 26.940967945119528" Properties=species:S:1:pos:R:3:forces:R:3 tau=tau70 tau_p=7 tau_q=0 stage=B constraint=xy_fixed_z_free force_label=raw_dft energy=-15498.679898027647 free_energy=-15498.679898027647 stress="0.015030240160815023 -0.0 -0.01765158015220946 -0.0 0.006617161932742449 0.0 -0.01765158015220946 0.0 -0.01794906321953408" pbc="T T T"
Sr       0.00003626       0.00009419      10.75260867      -0.00432254       0.00002931       0.24038426
Sr       2.75856679       3.94093570      14.64522241       0.85313677       0.00008125       2.98617666
Ti       1.97047258       1.97057465      12.38212169      -0.51587874      -0.00049545      -1.26211315
Ti       0.78791569       1.97041071      16.28444791       0.18919900      -0.00005759       0.13971529
O        0.00000906       1.97050529      12.45001441      -2.13982323      -0.00001954      -2.36115073
O        2.75885291       1.97047849      16.39256827      -0.01295862       0.00001414      -0.18932190
O        1.97049386       3.94093294      12.44909065      -0.09032594       0.00012933      -0.80124573
O        0.78828653       0.00000434      16.37955485       0.06652858       0.00004062      -0.03425815
O        1.97043435       1.97038588      10.49176941      -0.30898978       0.00020749       0.22152008
O        0.78825658       1.97042687      14.44792112       1.96343450       0.00007019       1.06029338
10
Lattice="3.940949890606662 0.0 0.0 0.0 3.940949890606662 0.0 0.0 0.0 26.940967945119528" Properties=species:S:1:pos:R:3:forces:R:3 tau=tau70 tau_p=7 tau_q=0 stage=B constraint=xy_fixed_z_free force_label=raw_dft energy=-15498.994983267361 free_energy=-15498.994983267361 stress="0.012786262949267563 -0.0 -0.015076148041574998 -0.0 0.005271142868860052 0.0 -0.015076148041574998 0.0 -0.017355015242500035" pbc="T T T"
Sr       0.00003612       0.00009431      10.75755623      -0.00317017       0.00001054       0.20074916
Sr       2.75856694       3.94093589      14.70668335       0.62196040       0.00004268       2.11650795
Ti       1.97047269       1.97057450      12.35614550      -0.50132321      -0.00046511      -0.90847102
Ti       0.78791578       1.97041077      16.28732350       0.16860035      -0.00000283       0.24256739
O        0.00000902       1.97050521      12.40141793      -1.77741673      -0.00001671      -1.80167020
O        2.75885292       1.97047857      16.38867176      -0.01662192       0.00000257      -0.03137466
O        1.97049401       3.94093312      12.43259962       0.05684992       0.00013910      -0.36314364
O        0.78828644       0.00000441      16.37884972       0.05898702      -0.00000514       0.11474988
O        1.97043419       1.97038596      10.49632865      -0.28555597       0.00020543      -0.14724939
O        0.78825659       1.97042684      14.46974371       1.67769006       0.00008922       0.57733453
10
Lattice="3.940949890606662 0.0 0.0 0.0 3.940949890606662 0.0 0.0 0.0 26.940967945119528" Properties=species:S:1:pos:R:3:forces:R:3 tau=tau70 tau_p=7 tau_q=0 stage=B constraint=xy_fixed_z_free force_label=raw_dft energy=-15499.231379035386 free_energy=-15499.231379035386 stress="0.010017099581826018 0.0 -0.012698119818208417 0.0 0.003661612569415413 0.0 -0.012698119818208417 0.0 -0.01664160677549006" pbc="T T T"
Sr       0.00003612       0.00009431      10.76391255      -0.00137580      -0.00001414       0.07290826
Sr       2.75856694       3.94093589      14.77429006       0.43599122       0.00000386       1.24361920
Ti       1.97047269       1.97057450      12.32715234      -0.48238318      -0.00043992      -0.59293264
Ti       0.78791578       1.97041077      16.29480645       0.14922374       0.00005374       0.19663720
O        0.00000902       1.97050521      12.34410480      -1.44788563      -0.00001286      -1.22351498
O        2.75885292       1.97047857      16.38747956      -0.01835073      -0.00001106       0.17053742
O        1.97049401       3.94093312      12.42062147       0.16520829       0.00014964      -0.03935176
O        0.78828644       0.00000441      16.38225817       0.05136653      -0.00004037       0.29715988
O        1.97043419       1.97038596      10.49218743      -0.26059133       0.00021032      -0.43408346
O        0.78825659       1.97042684      14.48850714       1.40879690       0.00010104       0.30902037
10
Lattice="3.940949890606662 0.0 0.0 0.0 3.940949890606662 0.0 0.0 0.0 26.940967945119528" Properties=species:S:1:pos:R:3:forces:R:3 tau=tau70 tau_p=7 tau_q=0 stage=B constraint=xy_fixed_z_free force_label=raw_dft energy=-15499.418442877426 free_energy=-15499.418442877426 stress="0.0054419201852871505 0.0 -0.00973155256349899 0.0 0.0009034670933562606 0.0 -0.00973155256349899 0.0 -0.015799656242352165" pbc="T T T"
Sr       0.00003612       0.00009431      10.77121666       0.00212502      -0.00006222      -0.24695394
Sr       2.75856694       3.94093589      14.87570013       0.24570773      -0.00003060       0.09026886
Ti       1.97047269       1.97057450      12.28088001      -0.45294867      -0.00044711      -0.26707000
Ti       0.78791578       1.97041077      16.30822416       0.12097349       0.00011441       0.16668153
O        0.00000902       1.97050521      12.25061706      -1.04634488       0.00003188      -0.38308177
O        2.75885292       1.97047857      16.39442634      -0.01907373      -0.00002854       0.45844029
O        1.97049401       3.94093312      12.41040136       0.26016504       0.00016661       0.23092003
O        0.78828644       0.00000441      16.39795224       0.04133228      -0.00008022       0.53789072
O        1.97043419       1.97038596      10.47022060      -0.22174428       0.00021649      -0.63926983
O        0.78825659       1.97042684      14.51568142       1.06980774       0.00011930       0.05217437
10
Lattice="3.940949890606662 0.0 0.0 0.0 3.940949890606662 0.0 0.0 0.0 26.940967945119528" Properties=species:S:1:pos:R:3:forces:R:3 tau=tau70 tau_p=7 tau_q=0 stage=B constraint=xy_fixed_z_free force_label=raw_dft energy=-15499.465363466625 free_energy=-15499.465363466625 stress="0.003996740098963213 0.0 -0.00863986315902684 0.0 0.00028462886071183003 0.0 -0.00863986315902684 0.0 -0.014529844260531322" pbc="T T T"
Sr       0.00003612       0.00009431      10.76716433       0.00366665      -0.00008665      -0.41654082
Sr       2.75856694       3.94093589      14.91722605       0.18878736      -0.00004268      -0.27973860
Ti       1.97047269       1.97057450      12.25588303      -0.44175897      -0.00045046      -0.22121720
Ti       0.78791578       1.97041077      16.31741612       0.11021239       0.00013344       0.22203301
O        0.00000902       1.97050521      12.20513357      -0.90010594       0.00005451      -0.04878900
O        2.75885292       1.97047857      16.40874504      -0.01863201      -0.00003522       0.50698272
O        1.97049401       3.94093312      12.41144531       0.28323992       0.00017355       0.22538470
O        0.78828644       0.00000441      16.41755045       0.03740312      -0.00009385       0.55532666
O        1.97043419       1.97038596      10.44649065      -0.20255691       0.00023166      -0.53086158
O        0.78825659       1.97042684      14.52826541       0.93974412       0.00011544      -0.01257989
10
Lattice="3.940949890606662 0.0 0.0 0.0 3.940949890606662 0.0 0.0 0.0 26.940967945119528" Properties=species:S:1:pos:R:3:forces:R:3 tau=tau70 tau_p=7 tau_q=0 stage=B constraint=xy_fixed_z_free force_label=raw_dft energy=-15499.516510119796 free_energy=-15499.516510119796 stress="0.0036818120369498013 0.0 -0.007646416619381034 0.0 0.0009925283820306074 0.0 -0.007646416619381034 0.0 -0.011846987708918526" pbc="T T T"
Sr       0.00003612       0.00009431      10.74939731       0.00476657      -0.00010593      -0.53621771
Sr       2.75856694       3.94093589      14.95369128       0.14375603      -0.00006042      -0.48233715
Ti       1.97047269       1.97057450      12.22162673      -0.43115472      -0.00044506      -0.14029430
Ti       0.78791578       1.97041077      16.33429655       0.10240035       0.00013833       0.27803241
O        0.00000902       1.97050521      12.15569577      -0.76795638       0.00007559       0.20148527
O        2.75885292       1.97047857      16.43863896      -0.01719528      -0.00003908       0.44520528
O        1.97049401       3.94093312      12.41760930       0.29812790       0.00015529       0.07616585
O        0.78828644       0.00000441      16.45429734       0.03375061      -0.00008202       0.45367244
O        1.97043419       1.97038596      10.40784262      -0.18031892       0.00025017      -0.31788940
O        0.78825659       1.97042684      14.54222411       0.81382357       0.00011313       0.02217731
10
Lattice="3.940949890606662 0.0 0.0 0.0 3.940949890606662 0.0 0.0 0.0 26.940967945119528" Properties=species:S:1:pos:R:3:forces:R:3 tau=tau70 tau_p=7 tau_q=0 stage=B constraint=xy_fixed_z_free force_label=raw_dft energy=-15499.569281428641 free_energy=-15499.569281428641 stress="0.004997531899530615 0.0 -0.006842110548466314 0.0 0.003578978384047463 0.0 -0.006842110548466314 0.0 -0.007673961347837017" pbc="T T T"
Sr       0.00003612       0.00009431      10.71226143       0.00493523      -0.00010799      -0.53863223
Sr       2.75856694       3.94093589      14.97800250       0.11386825      -0.00007071      -0.44444064
Ti       1.97047269       1.97057450      12.18007848      -0.42055354      -0.00043195      -0.00595956
Ti       0.78791578       1.97041077      16.36169451       0.09780965       0.00013061       0.32225307
O        0.00000902       1.97050521      12.10842613      -0.66032640       0.00007353       0.30017604
O        2.75885292       1.97047857      16.48539230      -0.01512271      -0.00003497       0.25303769
O        1.97049401       3.94093312      12.42567820       0.30411188       0.00011493      -0.20150610
O        0.78828644       0.00000441      16.50867892       0.03040278      -0.00005168       0.22094055
O        1.97043419       1.97038596      10.35598375      -0.15717591       0.00026894      -0.04674908
O        0.78825659       1.97042684      14.55912373       0.70205052       0.00010876       0.14088051
10
Lattice="3.940949890606662 0.0 0.0 0.0 3.940949890606662 0.0 0.0 0.0 26.940967945119528" Properties=species:S:1:pos:R:3:forces:R:3 tau=tau70 tau_p=7 tau_q=0 stage=B constraint=xy_fixed_z_free force_label=raw_dft energy=-15499.60324137176 free_energy=-15499.60324137176 stress="0.007244263583923673 0.0 -0.0065290188016833015 0.0 0.0066988779604952005 0.0 -0.0065290188016833015 0.0 -0.004071110865794369" pbc="T T T"
Sr       0.00003612       0.00009431      10.67069922       0.00397107      -0.00008716      -0.39789775
Sr       2.75856694       3.94093589      14.97875397       0.10775082      -0.00007328      -0.22140721
Ti       1.97047269       1.97057450      12.15308429      -0.41629477      -0.00039595       0.06984736
Ti       0.78791578       1.97041077      16.38961212       0.09822822       0.00009873       0.30056916
O        0.00000902       1.97050521      12.08667379      -0.61268026       0.00004654       0.22038134
O        2.75885292       1.97047857      16.52548838      -0.01336151      -0.00002365       0.06123519
O        1.97049401       3.94093312      12.42605443       0.30049794       0.00007276      -0.40796080
O        0.78828644       0.00000441      16.55298009       0.02828188      -0.00001851       0.01323115
O        1.97043419       1.97038596      10.31771082      -0.14333489       0.00027819       0.12391894
O        0.78825659       1.97042684      14.57426286       0.64694149       0.00010207       0.23808287
10
Lattice="3.940949890606662 0.0 0.0 0.0 3.940949890606662 0.0 0.0 0.0 26.940967945119528" Properties=species:S:1:pos:R:3:forces:R:3 tau=tau70 tau_p=7 tau_q=0 stage=B constraint=xy_fixed_z_free force_label=raw_dft energy=-15499.62453414358 free_energy=-15499.62453414358 stress="0.00939550687633599 0.0 -0.006472093029540935 0.0 0.00917698536391852 0.0 -0.006472093029540935 0.0 -0.001681146593430196" pbc="T T T"
Sr       0.00003612       0.00009431      10.63316648       0.00272023      -0.00006376      -0.19728332
Sr       2.75856694       3.94093589      14.96892978       0.11241814      -0.00006916       0.01739686
Ti       1.97047269       1.97057450      12.14007728      -0.41713783      -0.00036767       0.06626453
Ti       0.78791578       1.97041077      16.41529093       0.10095899       0.00006711       0.20364217
O        0.00000902       1.97050521      12.08232590      -0.59588812       0.00001466       0.09456466
O        2.75885292       1.97047857      16.55279852      -0.01184199      -0.00001620      -0.04853240
O        1.97049401       3.94093312      12.41564740       0.29292347       0.00004345      -0.47457885
O        0.78828644       0.00000441      16.58137852       0.02663072       0.00000129      -0.09523006
O        1.97043419       1.97038596      10.29639559      -0.13568791       0.00028616       0.16833347
O        0.78825659       1.97042684      14.58930956       0.62490405       0.00010362       0.26542321
10
Lattice="3.940949890606662 0.0 0.0 0.0 3.940949890606662 0.0 0.0 0.0 26.940967945119528" Properties=species:S:1:pos:R:3:forces:R:3 tau=tau70 tau_p=7 tau_q=0 stage=B constraint=xy_fixed_z_free force_label=raw_dft energy=-15499.638876447674 free_energy=-15499.638876447674 stress="0.010912303256645484 0.0 -0.006436284882548156 0.0 0.010612065716475263 9.181576151994517e-07 -0.006436284882548156 9.181576151994517e-07 -0.0004214343453765483" pbc="T T T"
Sr       0.00003612       0.00009431      10.60271608       0.00167713      -0.00004242      -0.00919375
Sr       2.75856694       3.94093589      14.96141276       0.11675457      -0.00006505       0.17815020
Ti       1.97047269       1.97057450      12.13388400      -0.41825446      -0.00034993       0.00936704
Ti       0.78791578       1.97041077      16.43801121       0.10294337       0.00005142       0.08224830
O        0.00000902       1.97050521      12.08332658      -0.58468300      -0.00001568       0.01184559
O        2.75885292       1.97047857      16.56985917      -0.01053304      -0.00001080      -0.07413750
O        1.97049401       3.94093312      12.39564345       0.28550275       0.00003317      -0.42102714
O        0.78828644       0.00000441      16.59776204       0.02492325       0.00000900      -0.11362219
O        1.97043419       1.97038596      10.28648431      -0.13006260       0.00028385       0.11710706
O        0.78825659       1.97042684      14.60622035       0.61173178       0.00010670       0.21926239
10
Lattice="3.940949890606662 0.0 0.0 0.0 3.940949890606662 0.0 0.0 0.0 26.940967945119528" Properties=species:S:1:pos:R:3:forces:R:3 tau=tau70 tau_p=7 tau_q=0 stage=B constraint=xy_fixed_z_free force_label=raw_dft energy=-15499.64975310992 free_energy=-15499.64975310992 stress="0.011644074875959446 0.0 -0.006284788876040247 0.0 0.01108399873068778 9.181576151994517e-07 -0.006284788876040247 9.181576151994517e-07 1.8363152303989035e-05" pbc="T T T"
Sr       0.00003612       0.00009431      10.57934233       0.00100787      -0.00003522       0.12685643
Sr       2.75856694       3.94093589      14.96345749       0.11463469      -0.00006351       0.23189088
Ti       1.97047269       1.97057450      12.12759674      -0.41371621      -0.00033656      -0.06258836
Ti       0.78791578       1.97041077      16.45821826       0.10239573       0.00004499      -0.01678442
O        0.00000902       1.97050521      12.08190408      -0.56552262      -0.00003754      -0.00298094
O        2.75885292       1.97047857      16.58154722      -0.00957942      -0.00000720      -0.04343853
O        1.97049401       3.94093312      12.36848137       0.27920149       0.00003548      -0.29491196
O        0.78828644       0.00000441      16.60807962       0.02285376       0.00000591      -0.07636562
O        1.97043419       1.97038596      10.28091615      -0.12382587       0.00028514       0.01513326
O        0.78825659       1.97042684      14.62577670       0.59255032       0.00010850       0.12318927
10
Lattice="3.940949890606662 0.0 0.0 0.0 3.940949890606662 0.0 0.0 0.0 26.940967945119528" Properties=species:S:1:pos:R:3:forces:R:3 tau=tau70 tau_p=7 tau_q=0 stage=B constraint=xy_fixed_z_free force_label=raw_dft energy=-15499.658070949681 free_energy=-15499.658070949681 stress="0.011618366462733861 0.0 -0.005991896596791621 0.0 0.01081773302227994 9.181576151994517e-07 -0.005991896596791621 9.181576151994517e-07 -7.804339729195339e-05" pbc="T T T"
Sr       0.00003612       0.00009431      10.56401719       0.00099527      -0.00003522       0.18238146
Sr       2.75856694       3.94093589      14.97710570       0.10554533      -0.00006505       0.18197831
Ti       1.97047269       1.97057450      12.11717713      -0.40120548      -0.00033296      -0.11126140
Ti       0.78791578       1.97041077      16.47509239       0.09886200       0.00004962      -0.06301234
O        0.00000902       1.97050521      12.07524469      -0.53649641      -0.00004654       0.03747023
O        2.75885292       1.97047857      16.59120150      -0.00907445      -0.00000591       0.01233024
O        1.97049401       3.94093312      12.33872434       0.27331392       0.00004602      -0.15384839
O        0.78828644       0.00000441      16.61630807       0.02050326      -0.00000514      -0.01780823
O        1.97043419       1.97038596      10.27442521      -0.11621026       0.00028308      -0.08526678
O        0.78825659       1.97042684      14.64602374       0.56376682       0.00011210       0.01703742
10
Lattice="3.940949890606662 0.0 0.0 0.0 3.940949890606662 0.0 0.0 0.0 26.940967945119528" Properties=species:S:1:pos:R:3:forces:R:3 tau=tau70 tau_p=7 tau_q=0 stage=B constraint=xy_fixed_z_free force_label=raw_dft energy=-15499.663588874104 free_energy=-15499.663588874104 stress="0.011143678975675746 0.0 -0.0056429967030158295 0.0 0.010222766887630696 9.181576151994517e-07 -0.0056429967030158295 9.181576151994517e-07 -0.00030758280109181635" pbc="T T T"
Sr       0.00003612       0.00009431      10.55660981       0.00140485      -0.00004319       0.15630636
Sr       2.75856694       3.94093589      14.99735379       0.09373317      -0.00006839       0.07699374
Ti       1.97047269       1.97057450      12.10251740      -0.38333863      -0.00033399      -0.11623135
Ti       0.78791578       1.97041077      16.48747622       0.09388640       0.00006094      -0.05496401
O        0.00000902       1.97050521      12.06547693      -0.50583781      -0.00004679       0.09090187
O        2.75885292       1.97047857      16.60094878      -0.00900349      -0.00000797       0.05645937
O        1.97049401       3.94093312      12.31314158       0.26715047       0.00005451      -0.05526046
O        0.78828644       0.00000441      16.62488460       0.01835793      -0.00001671       0.02589924
O        1.97043419       1.97038596      10.26412801      -0.10823367       0.00028976      -0.12982888
O        0.78825659       1.97042684      14.66278283       0.53188103       0.00011210      -0.05027587
10
Lattice="3.940949890606662 0.0 0.0 0.0 3.940949890606662 0.0 0.0 0.0 26.940967945119528" Properties=species:S:1:pos:R:3:forces:R:3 tau=tau70 tau_p=7 tau_q=0 stage=B constraint=xy_fixed_z_free force_label=raw_dft energy=-15499.666733149508 free_energy=-15499.666733149508 stress="0.010722244630299197 0.0 -0.005350104423767205 0.0 0.009756342819109374 9.181576151994517e-07 -0.005350104423767205 9.181576151994517e-07 -0.0002901378064030267" pbc="T T T"
Sr       0.00003612       0.00009431      10.55319413       0.00192241      -0.00004782       0.09585870
Sr       2.75856694       3.94093589      15.01552279       0.08404293      -0.00007456      -0.01135142
Ti       1.97047269       1.97057450      12.08664908      -0.36578416      -0.00033296      -0.08902342
Ti       0.78791578       1.97041077      16.49656993       0.08960757       0.00006479      -0.02723030
O        0.00000902       1.97050521      12.05749363      -0.48275727      -0.00004731       0.11377980
O        2.75885292       1.97047857      16.61180209      -0.00904694      -0.00000926       0.06719141
O        1.97049401       3.94093312      12.29439135       0.26101711       0.00006325      -0.01414672
O        0.78828644       0.00000441      16.63462992       0.01675974      -0.00002211       0.03649424
O        1.97043419       1.97038596      10.25074293      -0.10121199       0.00029542      -0.10853423
O        0.78825659       1.97042684      14.67432410       0.50545034       0.00011081      -0.06303831
10
Lattice="3.940949890606662 0.0 0.0 0.0 3.940949890606662 0.0 0.0 0.0 26.940967945119528" Properties=species:S:1:pos:R:3:forces:R:3 tau=tau70 tau_p=7 tau_q=0 stage=B constraint=xy_fixed_z_free force_label=raw_dft energy=-15499.668507875964 free_energy=-15499.668507875964 stress="0.010579930199943282 0.0 -0.005170145531188113 0.0 0.009534148676231107 9.181576151994517e-07 -0.005170145531188113 9.181576151994517e-07 -5.32531416815682e-05" pbc="T T T"
Sr       0.00003612       0.00009431      10.55172419       0.00237647      -0.00005168       0.04286569
Sr       2.75856694       3.94093589      15.02645531       0.07839602      -0.00007739      -0.05031777
Ti       1.97047269       1.97057450      12.07353705      -0.35239566      -0.00033347      -0.05103460
Ti       0.78791578       1.97041077      16.50287090       0.08726298       0.00006788      -0.00261455
O        0.00000902       1.97050521      12.05500353      -0.47156937      -0.00004859       0.09435871
O        2.75885292       1.97047857      16.62183580      -0.00911250      -0.00000951       0.05076515
O        1.97049401       3.94093312      12.28143675       0.25569210       0.00006711      -0.00707053
O        0.78828644       0.00000441      16.64319159       0.01572615      -0.00002417       0.02327311
O        1.97043419       1.97038596      10.23834475      -0.09609755       0.00030185      -0.05651979
O        0.78825659       1.97042684      14.68092009       0.48972085       0.00010773      -0.04370567
10
Lattice="3.940949890606662 0.0 0.0 0.0 3.940949890606662 0.0 0.0 0.0 26.940967945119528" Properties=species:S:1:pos:R:3:forces:R:3 tau=tau70 tau_p=7 tau_q=0 stage=B constraint=xy_fixed_z_free force_label=raw_dft energy=-15499.66945183887 free_energy=-15499.66945183887 stress="0.010676336749539226 0.0 -0.0051086289709697495 0.0 0.009472632116012743 9.181576151994517e-07 -0.0051086289709697495 9.181576151994517e-07 0.00020842177865027553" pbc="T T T"
Sr       0.00003612       0.00009431      10.55217326       0.00267780      -0.00005116       0.01080018
Sr       2.75856694       3.94093589      15.02947258       0.07666078      -0.00007868      -0.04608831
Ti       1.97047269       1.97057450      12.06573623      -0.34451754      -0.00033476      -0.01469334
Ti       0.78791578       1.97041077      16.50609963       0.08684904       0.00006556       0.00888985
O        0.00000902       1.97050521      12.05831380      -0.47171850      -0.00005168       0.04761272
O        2.75885292       1.97047857      16.62853818      -0.00919761      -0.00001028       0.02503972
O        1.97049401       3.94093312      12.27327417       0.25189021       0.00006916      -0.00929788
O        0.78828644       0.00000441      16.64798537       0.01518648      -0.00002237       0.00418241
O        1.97043419       1.97038596      10.23049731      -0.09331665       0.00030596      -0.00943852
O        0.78825659       1.97042684      14.68322943       0.48548598       0.00010850      -0.01700656
10
Lattice="3.940949890606662 0.0 0.0 0.0 3.940949890606662 0.0 0.0 0.0 26.940967945119528" Properties=species:S:1:pos:R:3:forces:R:3 tau=tau70 tau_p=7 tau_q=0 stage=B constraint=xy_fixed_z_free force_label=raw_dft energy=-15499.6697817769 free_energy=-15499.6697817769 stress="0.010832423544123131 0.0 -0.005145355275577727 0.0 0.009468041327936745 9.181576151994517e-07 -0.005145355275577727 9.181576151994517e-07 0.00029840122493982177" pbc="T T T"
Sr       0.00003612       0.00009431      10.55433385       0.00276059      -0.00005014       0.00266521
Sr       2.75856694       3.94093589      15.02646381       0.07784529      -0.00007842      -0.02285017
Ti       1.97047269       1.97057450      12.06505288      -0.34327415      -0.00033450       0.00206794
Ti       0.78791578       1.97041077      16.50571012       0.08773170       0.00006633       0.00703042
O        0.00000902       1.97050521      12.06396518      -0.47900038      -0.00005399       0.00872144
O        2.75885292       1.97047857      16.62963767      -0.00928785      -0.00001080       0.00904154
O        1.97049401       3.94093312      12.27108862       0.25077538       0.00007071      -0.00856229
O        0.78828644       0.00000441      16.64751484       0.01516617      -0.00002160      -0.00511444
O        1.97043419       1.97038596      10.22964768      -0.09318321       0.00030622       0.00882685
O        0.78825659       1.97042684      14.68190532       0.49046621       0.00010619      -0.00182625
