10
Lattice="3.940949890606662 0.0 0.0 0.0 3.940949890606662 0.0 0.0 0.0 26.940967945119528" Properties=species:S:1:pos:R:3:forces:R:3 tau=tau89 tau_p=8 tau_q=9 stage=A constraint=rigid_scf force_label=raw_dft energy=-15499.600660780174 free_energy=-15499.600660780174 stress="0.01126946656895807 0.000892449201973867 -0.013130572054967359 0.000892449201973867 0.008571001337886882 -0.005569544093799874 -0.013130572054967359 -0.005569544093799874 -0.006712650324723191" pbc="T T T"
Sr       0.00003626       0.00009419      10.75260867      -0.00052682       0.00202886       0.19531617
Sr       3.15266178       3.54684071      14.64522241       0.70644505       0.45165078       1.63907955
Ti       1.97047258       1.97057465      12.38212169      -0.59847234      -0.55454967      -0.63526586
Ti       1.18201068       1.57631572      16.28444791       0.12345306       0.03796799      -0.01600795
O        0.00000906       1.97050529      12.45001441      -1.64879164       0.40855806      -1.02781340
O        3.15294790       1.57638350      16.39256827       0.00222580      -0.00596624      -0.08298827
O        1.97049386       3.94093294      12.44909065       0.27744080      -0.67093246      -0.40654437
O        1.18238152       3.54685924      16.37955485       0.04043908       0.00839697      -0.01158565
O        1.97043435       1.97038588      10.49176941      -0.27085749      -0.12739790       0.17362968
O        1.18235157       1.57633188      14.44792112       1.36864449       0.45024387       0.17218009
