10
Lattice="3.940949890606662 0.0 0.0 0.0 3.940949890606662 0.0 0.0 0.0 26.940967945119528" Properties=species:S:1:pos:R:3:forces:R:3 tau=tau94 tau_p=9 tau_q=4 stage=B constraint=xy_fixed_z_free force_label=raw_dft energy=-15497.559272694736 free_energy=-15497.559272694736 stress="0.005631060654018237 -0.0009548839198074298 -0.0005720121942692583 -0.0009548839198074298 0.019555839046133124 0.011994811084965638 -0.0005720121942692583 0.011994811084965638 -0.029107432717053017" pbc="T T T"
Sr       0.00003626       0.00009419      10.75260867       0.00710524       0.00664759       0.34247017
Sr       3.54675677       1.57636577      14.64522241       0.58167867      -0.68071910       4.49222270
Ti       1.97047258       1.97057465      12.38212169      -0.89387615       0.39859787      -2.60034303
Ti       1.57610567       3.54679066      16.28444791      -0.02736245      -0.13084010       0.14151403
O        0.00000906       1.97050529      12.45001441       0.04353572       0.10510078      -1.30082085
O        3.54704288       3.54685845      16.39256827      -0.00145987      -0.03517912      -0.08589464
O        1.97049386       3.94093294      12.44909065       0.81741952       1.40710074      -3.14305817
O        1.57647651       1.57638429      16.37955485      -0.08768773       0.01562974      -0.24673849
O        1.97043435       1.97038588      10.49176941      -0.06277066       0.18615070       0.31293616
O        1.57644656       3.54680682      14.44792112      -0.37658228      -1.27248883       2.08771186
10
Lattice="3.940949890606662 0.0 0.0 0.0 3.940949890606662 0.0 0.0 0.0 26.940967945119528" Properties=species:S:1:pos:R:3:forces:R:3 tau=tau94 tau_p=9 tau_q=4 stage=B constraint=xy_fixed_z_free force_label=raw_dft energy=-15498.267565288501 free_energy=-15498.267565288501 stress="0.0039545048486640385 -0.0007014724180123811 -0.0012835843460488334 -0.0007014724180123811 0.014749283930563992 0.009195348516222508 -0.0012835843460488334 0.009195348516222508 -0.027683370255878668" pbc="T T T"
Sr       0.00003612       0.00009431      10.75965734       0.00783415       0.00442153       0.31936906
Sr       3.54675692       1.57636594      14.73768036       0.53081993      -0.42991647       2.84403785
Ti       1.97047269       1.97057450      12.32860243      -0.65602623       0.35128854      -1.38562869
Ti       1.57610576       3.54679074      16.28736052      -0.01879554      -0.10623618       0.55229224
O        0.00000902       1.97050521      12.42324134      -0.11952750      -0.03626695      -0.55385933
O        3.54704290       3.54685853      16.39080047      -0.00177560      -0.02920696       0.12358162
O        1.97049401       3.94093312      12.38440110       0.61531641       1.04125513      -2.25917718
O        1.57647643       1.57638437      16.37447651      -0.07622678       0.01652602       0.01034946
O        1.97043419       1.97038596      10.49821015      -0.06187720       0.15851031      -0.50102136
O        1.57644658       3.54680681      14.49088975      -0.21974190      -0.97037521       0.85005658
10
Lattice="3.940949890606662 0.0 0.0 0.0 3.940949890606662 0.0 0.0 0.0 26.940967945119528" Properties=species:S:1:pos:R:3:forces:R:3 tau=tau94 tau_p=9 tau_q=4 stage=B constraint=xy_fixed_z_free force_label=raw_dft energy=-15498.716935714341 free_energy=-15498.716935714341 stress="0.0014910879670839096 -0.0005407948353524771 -0.0017573536754917506 -0.0005407948353524771 0.009371634778340803 0.006975243402670235 -0.0017573536754917506 0.006975243402670235 -0.02544031120194641" pbc="T T T"
Sr       0.00003612       0.00009431      10.77072280       0.00937784       0.00124596       0.06287787
Sr       3.54675692       1.57636594      14.83938379       0.46192825      -0.25930964       1.29862975
Ti       1.97047269       1.97057450      12.27814909      -0.47964444       0.31176786      -0.56130370
Ti       1.57610576       3.54679074      16.30550774      -0.01087422      -0.08592267       0.39306434
O        0.00000902       1.97050521      12.40250094      -0.21632234      -0.12265550      -0.05539339
O        3.54704290       3.54685853      16.39460329      -0.00152492      -0.02306177       0.45326338
O        1.97049401       3.94093312      12.30454531       0.45043105       0.75853765      -1.36759831
O        1.57647643       1.57638437      16.37426961      -0.06241147       0.01465246       0.39861046
O        1.97043419       1.97038596      10.48271546      -0.05638866       0.13354567      -0.95274439
O        1.57644658       3.54680681      14.52292194      -0.09457109      -0.72880027       0.33059399
10
Lattice="3.940949890606662 0.0 0.0 0.0 3.940949890606662 0.0 0.0 0.0 26.940967945119528" Properties=species:S:1:pos:R:3:forces:R:3 tau=tau94 tau_p=9 tau_q=4 stage=B constraint=xy_fixed_z_free force_label=raw_dft energy=-15498.963094246608 free_energy=-15498.963094246608 stress="-0.001711445794731778 -0.0004223525029917478 -0.0020208649110539934 -0.0004223525029917478 0.003510116562907504 0.00510587449812415 -0.0020208649110539934 0.00510587449812415 -0.02201925592771325" pbc="T T T"
Sr       0.00003612       0.00009431      10.77910979       0.01067548      -0.00258987      -0.45500170
Sr       3.54675692       1.57636594      14.95137212       0.38202196      -0.14488423      -0.11233613
Ti       1.97047269       1.97057450      12.22477772      -0.34506236       0.27862119      -0.36032520
Ti       1.57610576       3.54679074      16.32996046      -0.00337637      -0.06602799       0.23961087
O        0.00000902       1.97050521      12.38710808      -0.26314058      -0.16755519       0.24519891
O        3.54704290       3.54685853      16.41488005      -0.00233816      -0.01758609       0.76710174
O        1.97049401       3.94093312      12.20335867       0.30884323       0.52446442      -0.36270012
O        1.57647643       1.57638437      16.39004292      -0.04856582       0.01257552       0.77853415
O        1.97043419       1.97038596      10.43746464      -0.04539103       0.10697280      -0.77033953
O        1.57644658       3.54680681      14.55724550       0.00633340      -0.52399082       0.03025751
10
Lattice="3.940949890606662 0.0 0.0 0.0 3.940949890606662 0.0 0.0 0.0 26.940967945119528" Properties=species:S:1:pos:R:3:forces:R:3 tau=tau94 tau_p=9 tau_q=4 stage=B constraint=xy_fixed_z_free force_label=raw_dft energy=-15499.042324000326 free_energy=-15499.042324000326 stress="-0.0019786296607548185 -0.0003837898831533708 -0.0020585093732771705 -0.0003837898831533708 0.002063100161353168 0.004442046542334948 -0.0020585093732771705 0.004442046542334948 -0.01974497951486421" pbc="T T T"
Sr       0.00003612       0.00009431      10.77004476       0.01079581      -0.00389214      -0.64999519
Sr       3.54675692       1.57636594      14.99341676       0.34604683      -0.11236466      -0.47365659
Ti       1.97047269       1.97057450      12.19222921      -0.29812044       0.26395794      -0.26322286
Ti       1.57610576       3.54679074      16.34488822      -0.00073276      -0.05949841       0.29421185
O        0.00000902       1.97050521      12.38610547      -0.27154655      -0.17540991       0.19042901
O        3.54704290       3.54685853      16.44187549      -0.00313366      -0.01567782       0.75079349
O        1.97049401       3.94093312      12.15485233       0.25802717       0.44330087      -0.01689343
O        1.57647643       1.57638437      16.41557967      -0.04267080       0.01158153       0.78637370
O        1.97043419       1.97038596      10.40320237      -0.03906328       0.09514830      -0.58584720
O        1.57644658       3.54680681      14.57312569       0.04039769      -0.44714569      -0.03219304
10
Lattice="3.940949890606662 0.0 0.0 0.0 3.940949890606662 0.0 0.0 0.0 26.940967945119528" Properties=species:S:1:pos:R:3:forces:R:3 tau=tau94 tau_p=9 tau_q=4 stage=B constraint=xy_fixed_z_free force_label=raw_dft energy=-15499.136883695317 free_energy=-15499.136883695317 stress="-0.0006675005862500014 -0.0003461454209301933 -0.0020768725255811598 -0.0003461454209301933 0.00199240202498281 0.00383514435868811 -0.0020768725255811598 0.00383514435868811 -0.016041131695149622" pbc="T T T"
Sr       0.00003612       0.00009431      10.74387868       0.01034535      -0.00476991      -0.76244007
Sr       3.54675692       1.57636594      15.02986977       0.31093096      -0.08618081      -0.62608753
Ti       1.97047269       1.97057450      12.14925547      -0.25592375       0.24760058      -0.11684995
Ti       1.57610576       3.54679074      16.36895566       0.00215587      -0.05407827       0.35551158
O        0.00000902       1.97050521      12.38732318      -0.27647381      -0.17912233      -0.00199466
O        3.54704290       3.54685853      16.48802706      -0.00398238      -0.01389116       0.59060374
O        1.97049401       3.94093312      12.10149536       0.21110043       0.37053145       0.23008339
O        1.57647643       1.57638437      16.46101359      -0.03658114       0.01030421       0.64288712
O        1.97043419       1.97038596      10.35439067      -0.03201203       0.08265737      -0.34358166
O        1.57644658       3.54680681      14.59111053       0.07044051      -0.37305138       0.03186780
10
Lattice="3.940949890606662 0.0 0.0 0.0 3.940949890606662 0.0 0.0 0.0 26.940967945119528" Properties=species:S:1:pos:R:3:forces:R:3 tau=tau94 tau_p=9 tau_q=4 stage=B constraint=xy_fixed_z_free force_label=raw_dft energy=-15499.246594688846 free_energy=-15499.246594688846 stress="0.0032071245498916847 -0.00029564675209422343 -0.002085135944117955 -0.00029564675209422343 0.0038984972341368717 0.0031896795552028953 -0.002085135944117955 0.0031896795552028953 -0.009754506503878975" pbc="T T T"
Sr       0.00003612       0.00009431      10.68503558       0.00857052      -0.00518874      -0.75096473
Sr       3.54675692       1.57636594      15.06423592       0.27357386      -0.06264699      -0.53540884
Ti       1.97047269       1.97057450      12.08667775      -0.21211601       0.22701221       0.07097247
Ti       1.57610576       3.54679074      16.41334466       0.00488458      -0.04868924       0.43067881
O        0.00000902       1.97050521      12.38619574      -0.27691141      -0.17842196      -0.35315645
O        3.54704290       3.54685853      16.56752322      -0.00463673      -0.01174171       0.23854104
O        1.97049401       3.94093312      12.03372100       0.16188385       0.29503666       0.37179309
O        1.57647643       1.57638437      16.54104905      -0.02948567       0.00865896       0.29688862
O        1.97043419       1.97038596      10.27819810      -0.02388966       0.06750149       0.00564177
O        1.57644658       3.54680681      14.61933894       0.09812667      -0.29152042       0.22501395
10
Lattice="3.940949890606662 0.0 0.0 0.0 3.940949890606662 0.0 0.0 0.0 26.940967945119528" Properties=species:S:1:pos:R:3:forces:R:3 tau=tau94 tau_p=9 tau_q=4 stage=B constraint=xy_fixed_z_free force_label=raw_dft energy=-15499.307485874633 free_energy=-15499.307485874633 stress="0.007349851709671611 -0.00025524781702544757 -0.002101662781191545 -0.00025524781702544757 0.0067282590041815825 0.0028811785964958795 -0.002101662781191545 0.0028811785964958795 -0.00482308195264272" pbc="T T T"
Sr       0.00003612       0.00009431      10.62332396       0.00684813      -0.00468841      -0.56875090
Sr       3.54675692       1.57636594      15.07341904       0.25742862      -0.05453618      -0.27722997
Ti       1.97047269       1.97057450      12.04544277      -0.19320632       0.21574049       0.14531618
Ti       1.57610576       3.54679074      16.45631775       0.00645938      -0.04758443       0.41186964
O        0.00000902       1.97050521      12.37578845      -0.27203223      -0.17351013      -0.57270423
O        3.54704290       3.54685853      16.63003724      -0.00478174      -0.01029907      -0.03365934
O        1.97049401       3.94093312      11.99597743       0.13704674       0.25743042       0.31348227
O        1.57647643       1.57638437      16.60552972      -0.02555419       0.00764518       0.01388781
O        1.97043419       1.97038596      10.22379939      -0.01976664       0.05887363       0.19651584
O        1.57644658       3.54680681      14.64568421       0.10755850      -0.24907125       0.37127295
10
Lattice="3.940949890606662 0.0 0.0 0.0 3.940949890606662 0.0 0.0 0.0 26.940967945119528" Properties=species:S:1:pos:R:3:forces:R:3 tau=tau94 tau_p=9 tau_q=4 stage=B constraint=xy_fixed_z_free force_label=raw_dft energy=-15499.350078085059 free_energy=-15499.350078085059 stress="0.010803960658051948 -0.0002166851971870706 -0.0021301256672627282 -0.0002166851971870706 0.00956077524707189 0.0027489638999071584 -0.0021301256672627282 0.0027489638999071584 -0.0014846608637775133" pbc="T T T"
Sr       0.00003612       0.00009431      10.56376692       0.00492161      -0.00354195      -0.29441342
Sr       3.54675692       1.57636594      15.06979528       0.25269265      -0.05400114       0.00361009
Ti       1.97047269       1.97057450      12.02149959      -0.18653508       0.20934205       0.10854221
Ti       1.57610576       3.54679074      16.49801781       0.00696435      -0.04774976       0.29757280
O        0.00000902       1.97050521      12.35348410      -0.26358770      -0.16643034      -0.62856093
O        3.54704290       3.54685853      16.67423894      -0.00465987      -0.00909476      -0.17550736
O        1.97049401       3.94093312      11.97894920       0.12422542       0.23792397       0.18406090
O        1.57647643       1.57638437      16.65250992      -0.02335796       0.00684171      -0.14526373
O        1.97043419       1.97038596      10.18924876      -0.01805352       0.05347509       0.24078458
O        1.57644658       3.54680681      14.67380944       0.10738984      -0.22676513       0.40917487
10
Lattice="3.940949890606662 0.0 0.0 0.0 3.940949890606662 0.0 0.0 0.0 26.940967945119528" Properties=species:S:1:pos:R:3:forces:R:3 tau=tau94 tau_p=9 tau_q=4 stage=B constraint=xy_fixed_z_free force_label=raw_dft energy=-15499.382181123345 free_energy=-15499.382181123345 stress="0.013084664174207386 -0.0001762862621182947 -0.0021494069771819165 -0.0001762862621182947 0.011867187176452913 0.0026782657635368006 -0.0021494069771819165 0.0026782657635368006 0.0003865443559989692" pbc="T T T"
Sr       0.00003612       0.00009431      10.50905680       0.00312235      -0.00221321       0.00648895
Sr       3.54675692       1.57636594      15.06472961       0.25148551      -0.05644343       0.23640934
Ti       1.97047269       1.97057450      12.00748615      -0.18466640       0.20525965      -0.00295188
Ti       1.57610576       3.54679074      16.53903006       0.00713790      -0.04880494       0.10647632
O        0.00000902       1.97050521      12.31806381      -0.25123766      -0.15766776      -0.54064077
O        3.54704290       3.54685853      16.70355184      -0.00439633      -0.00783827      -0.18964688
O        1.97049401       3.94093312      11.97290391       0.11680265       0.22515742       0.06872687
O        1.57647643       1.57638437      16.68496719      -0.02189474       0.00591971      -0.17769048
O        1.97043419       1.97038596      10.16892713      -0.01772441       0.04935850       0.16207514
O        1.57644658       3.54680681      14.70660346       0.10137140      -0.21272793       0.33075314
10
Lattice="3.940949890606662 0.0 0.0 0.0 3.940949890606662 0.0 0.0 0.0 26.940967945119528" Properties=species:S:1:pos:R:3:forces:R:3 tau=tau94 tau_p=9 tau_q=4 stage=B constraint=xy_fixed_z_free force_label=raw_dft energy=-15499.401471817593 free_energy=-15499.401471817593 stress="0.013475799318282354 -0.00014506890320151335 -0.0021292075096475283 -0.00014506890320151335 0.012691692714902022 0.002610322100012041 -0.0021292075096475283 0.002610322100012041 0.000522431683048488" pbc="T T T"
Sr       0.00003612       0.00009431      10.47836330       0.00203863      -0.00155115       0.18252390
Sr       3.54675692       1.57636594      15.06871255       0.24742189      -0.05776060       0.31498636
Ti       1.97047269       1.97057450      11.99992043      -0.18163867       0.19973923      -0.10638659
Ti       1.57610576       3.54679074      16.56583839       0.00736313      -0.04797036      -0.02398325
O        0.00000902       1.97050521      12.28206964      -0.23844514      -0.14980301      -0.39049632
O        3.54704290       3.54685853      16.71444942      -0.00425800      -0.00678566      -0.11403922
O        1.97049401       3.94093312      11.97176513       0.11294419       0.21639510       0.03526268
O        1.57647643       1.57638437      16.69801084      -0.02094678       0.00521368      -0.11206899
O        1.97043419       1.97038596      10.16186095      -0.01817770       0.04641844       0.03115843
O        1.57644658       3.54680681      14.73432931       0.09369820      -0.20389568       0.18304300
10
Lattice="3.940949890606662 0.0 0.0 0.0 3.940949890606662 0.0 0.0 0.0 26.940967945119528" Properties=species:S:1:pos:R:3:forces:R:3 tau=tau94 tau_p=9 tau_q=4 stage=B constraint=xy_fixed_z_free force_label=raw_dft energy=-15499.41735537447 free_energy=-15499.41735537447 stress="0.012817480308184347 -0.00011752417474552982 -0.0020493277971251763 -0.00011752417474552982 0.012550296442161305 0.002473516615347323 -0.0020493277971251763 0.002473516615347323 -0.0001065062833631364" pbc="T T T"
Sr       0.00003612       0.00009431      10.45832576       0.00132875      -0.00138197       0.25945259
Sr       3.54675692       1.57636594      15.08686358       0.23462628      -0.05608836       0.27409759
Ti       1.97047269       1.97057450      11.98710753      -0.17195924       0.18880150      -0.16486505
Ti       1.57610576       3.54679074      16.58904144       0.00777579      -0.04526890      -0.10185168
O        0.00000902       1.97050521      12.24044091      -0.22232998      -0.14044317      -0.22516025
O        3.54704290       3.54685853      16.72205458      -0.00408960      -0.00556284      -0.00232582
O        1.97049401       3.94093312      11.96680329       0.10786215       0.20418904       0.05713583
O        1.57647643       1.57638437      16.70724478      -0.01963397       0.00470486      -0.00420195
O        1.97043419       1.97038596      10.15380447      -0.01846772       0.04271682      -0.10370853
O        1.57644658       3.54680681      14.76363362       0.08488780      -0.19166726       0.01142727
10
Lattice="3.940949890606662 0.0 0.0 0.0 3.940949890606662 0.0 0.0 0.0 26.940967945119528" Properties=species:S:1:pos:R:3:forces:R:3 tau=tau94 tau_p=9 tau_q=4 stage=B constraint=xy_fixed_z_free force_label=raw_dft energy=-15499.429913836297 free_energy=-15499.429913836297 stress="0.011646829348805045 -9.548839198074298e-05 -0.001917113100536455 -9.548839198074298e-05 0.01175333563216818 0.0022770308856946402 -0.001917113100536455 0.0022770308856946402 -0.0008777586801306758" pbc="T T T"
Sr       0.00003612       0.00009431      10.44587444       0.00101764      -0.00158457       0.22789461
Sr       3.54675692       1.57636594      15.11760994       0.21370341      -0.05185375       0.14767362
Ti       1.97047269       1.97057450      11.96530662      -0.15598651       0.17331472      -0.16389626
Ti       1.57610576       3.54679074      16.60961370       0.00772411      -0.04081986      -0.10791537
O        0.00000902       1.97050521      12.19821338      -0.20443715      -0.12995461      -0.09960891
O        3.54704290       3.54685853      16.73374046      -0.00380498      -0.00438939       0.09011331
O        1.97049401       3.94093312      11.95548567       0.10097776       0.18869557       0.10501825
O        1.57647643       1.57638437      16.72004470      -0.01773855       0.00429194       0.08957441
O        1.97043419       1.97038596      10.13786816      -0.01805017       0.03815414      -0.17427863
O        1.57644658       3.54680681      14.79156289       0.07659496      -0.17585446      -0.11457530
10
Lattice="3.940949890606662 0.0 0.0 0.0 3.940949890606662 0.0 0.0 0.0 26.940967945119528" Properties=species:S:1:pos:R:3:forces:R:3 tau=tau94 tau_p=9 tau_q=4 stage=B constraint=xy_fixed_z_free force_label=raw_dft energy=-15499.439603537976 free_energy=-15499.439603537976 stress="0.010603802297938466 -7.896155490715285e-05 -0.0017564355178765513 -7.896155490715285e-05 0.010908630626184685 0.0020520822699707747 -0.0017564355178765513 0.0020520822699707747 -0.0011476970189993147" pbc="T T T"
Sr       0.00003612       0.00009431      10.43310809       0.00091711      -0.00189979       0.13365237
Sr       3.54675692       1.57636594      15.15518025       0.18868966      -0.04674086       0.01011986
Ti       1.97047269       1.97057450      11.93352477      -0.13685879       0.15570138      -0.11692657
Ti       1.57610576       3.54679074      16.63178960       0.00708725      -0.03599904      -0.06977228
O        0.00000902       1.97050521      12.15612664      -0.18586839      -0.11856462      -0.03609777
O        3.54704290       3.54685853      16.75564470      -0.00346456      -0.00338794       0.12408812
O        1.97049401       3.94093312      11.93849617       0.09272066       0.17155326       0.13581672
O        1.57647643       1.57638437      16.74295184      -0.01546004       0.00395333       0.12686312
O        1.97043419       1.97038596      10.11024317      -0.01681861       0.03315155      -0.15607959
O        1.57644658       3.54680681      14.81825475       0.06905572      -0.15776752      -0.15166398
10
Lattice="3.940949890606662 0.0 0.0 0.0 3.940949890606662 0.0 0.0 0.0 26.940967945119528" Properties=species:S:1:pos:R:3:forces:R:3 tau=tau94 tau_p=9 tau_q=4 stage=B constraint=xy_fixed_z_free force_label=raw_dft energy=-15499.445542286448 free_energy=-15499.445542286448 stress="0.010160332169797132 -6.610734829436053e-05 -0.0016122847722902373 -6.610734829436053e-05 0.010579012042328082 0.0018656962740852857 -0.0016122847722902373 0.0018656962740852857 -0.0006877000537843893" pbc="T T T"
Sr       0.00003612       0.00009431      10.41715482       0.00074048      -0.00208054       0.04643901
Sr       3.54675692       1.57636594      15.18783016       0.16729628      -0.04282635      -0.06304576
Ti       1.97047269       1.97057450      11.89938978      -0.12093826       0.14099493      -0.05427110
Ti       1.57610576       3.54679074      16.65455371       0.00629637      -0.03299394      -0.02418303
O        0.00000902       1.97050521      12.11882060      -0.16991341      -0.10829641      -0.02702744
O        3.54704290       3.54685853      16.78445037      -0.00316837      -0.00260170       0.09174030
O        1.97049401       3.94093312      11.92204864       0.08554240       0.15740628       0.12072743
O        1.57647643       1.57638437      16.77288304      -0.01338542       0.00376718       0.09593069
O        1.97043419       1.97038596      10.07731012      -0.01532403       0.02887246      -0.07968749
O        1.57644658       3.54680681      14.84087872       0.06285422      -0.14224191      -0.10662236
10
Lattice="3.940949890606662 0.0 0.0 0.0 3.940949890606662 0.0 0.0 0.0 26.940967945119528" Properties=species:S:1:pos:R:3:forces:R:3 tau=tau94 tau_p=9 tau_q=4 stage=B constraint=xy_fixed_z_free force_label=raw_dft energy=-15499.44779157944 free_energy=-15499.44779157944 stress="0.010229193990937092 -6.059840260316382e-05 -0.001534241374998284 -6.059840260316382e-05 0.010787433820978359 0.0017775531430261385 -0.001534241374998284 0.0017775531430261385 -2.2035782764786838e-05" pbc="T T T"
Sr       0.00003612       0.00009431      10.40494406       0.00062452      -0.00207539       0.01304218
Sr       3.54675692       1.57636594      15.20324286       0.15643646      -0.04144978      -0.05784288
Ti       1.97047269       1.97057450      11.87826509      -0.11360856       0.13330296      -0.01717960
Ti       1.57610576       3.54679074      16.66942721       0.00580529      -0.03148033       0.00022420
O        0.00000902       1.97050521      12.09593171      -0.16106239      -0.10248931      -0.03356729
O        3.54704290       3.54685853      16.80515074      -0.00296063      -0.00225794       0.04018814
O        1.97049401       3.94093312      11.91502578       0.08231798       0.15104434       0.07660113
O        1.57647643       1.57638437      16.79452512      -0.01217392       0.00361677       0.04284769
O        1.97043419       1.97038596      10.05562175      -0.01449434       0.02652093      -0.01723642
O        1.57644658       3.54680681      14.85318565       0.05911583      -0.13473223      -0.04707741
10
Lattice="3.940949890606662 0.0 0.0 0.0 3.940949890606662 0.0 0.0 0.0 26.940967945119528" Properties=species:S:1:pos:R:3:forces:R:3 tau=tau94 tau_p=9 tau_q=4 stage=B constraint=xy_fixed_z_free force_label=raw_dft energy=-15499.448451591554 free_energy=-15499.448451591554 stress="0.01033386395906983 -5.876208737276491e-05 -0.0015057784889271008 -5.876208737276491e-05 0.011065635578383793 0.001760108148337349 -0.0015057784889271008 0.001760108148337349 0.00033329121431740095" pbc="T T T"
Sr       0.00003612       0.00009431      10.40018047       0.00058853      -0.00206845       0.00974114
Sr       3.54675692       1.57636594      15.20619246       0.15308811      -0.04157834      -0.03205394
Ti       1.97047269       1.97057450      11.87074154      -0.11166224       0.13069920      -0.00129738
Ti       1.57610576       3.54679074      16.67520333       0.00546668      -0.03119288       0.00292746
O        0.00000902       1.97050521      12.08535534      -0.15770555      -0.10020026      -0.02888300
O        3.54704290       3.54685853      16.81345632      -0.00286678      -0.00210188       0.01018260
O        1.97049401       3.94093312      11.91603893       0.08206807       0.15033394       0.03802944
O        1.57647643       1.57638437      16.80337178      -0.01176614       0.00359055       0.01100149
O        1.97043419       1.97038596      10.04779844      -0.01435987       0.02569509       0.00493035
O        1.57644658       3.54680681      14.85698136       0.05714945      -0.13317646      -0.01457841
10
Lattice="3.940949890606662 0.0 0.0 0.0 3.940949890606662 0.0 0.0 0.0 26.940967945119528" Properties=species:S:1:pos:R:3:forces:R:3 tau=tau94 tau_p=9 tau_q=4 stage=B constraint=xy_fixed_z_free force_label=raw_dft energy=-15499.44873935194 free_energy=-15499.44873935194 stress="0.010344881850452223 -5.876208737276491e-05 -0.0015048603313119013 -5.876208737276491e-05 0.011241921840502087 0.0017775531430261385 -0.0015048603313119013 0.0017775531430261385 0.0004076619811485565" pbc="T T T"
Sr       0.00003612       0.00009431      10.40168553       0.00062298      -0.00210265       0.01131465
Sr       3.54675692       1.57636594      15.20288287       0.15374066      -0.04228771      -0.01123315
Ti       1.97047269       1.97057450      11.87161616      -0.11261535       0.13102419       0.00149612
Ti       1.57610576       3.54679074      16.67435364       0.00536126      -0.03156852       0.00005656
O        0.00000902       1.97050521      12.08312028      -0.15763665      -0.10007479      -0.01661653
O        3.54704290       3.54685853      16.81325190      -0.00283978      -0.00207719      -0.00165322
O        1.97049401       3.94093312      11.92116776       0.08339862       0.15264665       0.01330906
O        1.57647643       1.57638437      16.80333435      -0.01179185       0.00361651      -0.00196895
O        1.97043419       1.97038596      10.04873475      -0.01457224       0.02575885       0.00665453
O        1.57644658       3.54680681      14.85517274       0.05633210      -0.13493561      -0.00135909
