10
Lattice="3.940949890606662 0.0 0.0 0.0 3.940949890606662 0.0 0.0 0.0 26.940967945119528" Properties=species:S:1:pos:R:3:forces:R:3 tau=tau41 tau_p=4 tau_q=1 stage=B constraint=xy_fixed_z_free force_label=raw_dft energy=-15497.555056698975 free_energy=-15497.555056698975 stress="0.019865258162455338 0.0009521294469618315 0.012002156345887232 0.0009521294469618315 0.005289506021164041 0.0005747666671148567 0.012002156345887232 0.0005747666671148567 -0.029133141130278605" pbc="T T T"
Sr       0.00003626       0.00009419      10.75260867       0.00676637      -0.00716746       0.34313454
Sr       1.57628183       0.39408080      14.64522241      -0.67788189      -0.57936853       4.48717923
Ti       1.97047258       1.97057465      12.38212169       0.39649419       0.89293487      -2.60500856
Ti       3.54658061       2.36450570      16.28444791      -0.13173278       0.02726501       0.14022899
O        0.00000906       1.97050529      12.45001441       1.41337372      -0.81840502      -3.15313021
O        1.57656794       2.36457348      16.39256827       0.01665766       0.08561311      -0.28075392
O        1.97049386       3.94093294      12.44909065       0.10357123      -0.04360102      -1.28966355
O        3.54695145       0.39409932      16.37955485      -0.03518555       0.00060678      -0.04909367
O        1.97043435       1.97038588      10.49176941       0.18625071       0.06297069       0.31330049
O        3.54692150       2.36452185      14.44792112      -1.27831393       0.37915158       2.09380640
10
Lattice="3.940949890606662 0.0 0.0 0.0 3.940949890606662 0.0 0.0 0.0 26.940967945119528" Properties=species:S:1:pos:R:3:forces:R:3 tau=tau41 tau_p=4 tau_q=1 stage=B constraint=xy_fixed_z_free force_label=raw_dft energy=-15498.264380604189 free_energy=-15498.264380604189 stress="0.01503850357935182 0.0007005542603971816 0.009201775619528904 0.0007005542603971816 0.0036900754554865965 0.001282666188433634 0.009201775619528904 0.001282666188433634 -0.027701733408182657" pbc="T T T"
Sr       0.00003612       0.00009431      10.75967101       0.00448658      -0.00797299       0.32038851
Sr       1.57628196       0.39408097      14.73757656      -0.42845532      -0.52851879       2.84428493
Ti       1.97047269       1.97057450      12.32850641       0.35026036       0.65520039      -1.38701168
Ti       3.54658072       2.36450576      16.28733407      -0.10648198       0.01921565       0.55496927
O        0.00000902       1.97050521      12.38511762       1.04494106      -0.61567456      -2.26594664
O        1.57656794       2.36457356      16.38678993       0.01714077       0.07456739      -0.03164719
O        1.97049401       3.94093312      12.42254715      -0.03690330       0.11886338      -0.54893310
O        3.54695139       0.39409940      16.37854438      -0.02928101       0.00076130       0.16687102
O        1.97043419       1.97038596      10.49821765       0.15854425       0.06208289      -0.50281753
O        3.54692153       2.36452183      14.49101518      -0.97425167       0.22147560       0.84984293
10
Lattice="3.940949890606662 0.0 0.0 0.0 3.940949890606662 0.0 0.0 0.0 26.940967945119528" Properties=species:S:1:pos:R:3:forces:R:3 tau=tau41 tau_p=4 tau_q=1 stage=B constraint=xy_fixed_z_free force_label=raw_dft energy=-15498.714984386004 free_energy=-15498.714984386004 stress="0.009584647345067076 0.0005398766777372775 0.0069807523483614315 0.0005398766777372775 0.0013092927592744182 0.0017555173602613516 0.0069807523483614315 0.0017555173602613516 -0.025455919881404797" pbc="T T T"
Sr       0.00003612       0.00009431      10.77075555       0.00128889      -0.00952799       0.06253077
Sr       1.57628196       0.39408097      14.83916581      -0.25843623      -0.46039819       1.30336161
Ti       1.97047269       1.97057450      12.27804518       0.31140044       0.47899395      -0.56111833
Ti       3.54658072       2.36450576      16.30553062      -0.08569127       0.01171832       0.39510168
O        0.00000902       1.97050521      12.30511687       0.76080459      -0.45059149      -1.37302205
O        1.57656794       2.36457356      16.38514938       0.01478821       0.06117529       0.35304615
O        1.97049401       3.94093312      12.40200448      -0.12288150       0.21562788      -0.05329717
O        3.54695139       0.39409940      16.38381410      -0.02323609       0.00041626       0.49904547
O        1.97043419       1.97038596      10.48270440       0.13353513       0.05665066      -0.95518025
O        3.54692153       2.36452183      14.52303358      -0.73157218       0.09593557       0.32953238
10
Lattice="3.940949890606662 0.0 0.0 0.0 3.940949890606662 0.0 0.0 0.0 26.940967945119528" Properties=species:S:1:pos:R:3:forces:R:3 tau=tau41 tau_p=4 tau_q=1 stage=B constraint=xy_fixed_z_free force_label=raw_dft energy=-15498.963284318126 free_energy=-15498.963284318126 stress="0.003597341536351452 0.0004214343453765483 0.005101283710048154 0.0004214343453765483 -0.0018335607575533052 0.002019946753438794 0.005101283710048154 0.002019946753438794 -0.02202109224294365" pbc="T T T"
Sr       0.00003612       0.00009431      10.77916878      -0.00263795      -0.01093259      -0.45688375
Sr       1.57628196       0.39408097      14.95171196      -0.14396918      -0.38072639      -0.11477790
Ti       1.97047269       1.97057450      12.22444744       0.27842528       0.34393518      -0.35886429
Ti       3.54658072       2.36450576      16.33015453      -0.06522169       0.00467041       0.23766763
O        0.00000902       1.97050521      12.20324614       0.52464954      -0.30824184      -0.36149428
O        1.57656794       2.36457356      16.39833419       0.01220168       0.04754381       0.73974803
O        1.97049401       3.94093312      12.38674512      -0.16776114       0.26285725       0.24701514
O        3.54695139       0.39409940      16.40680759      -0.01781954       0.00105955       0.80867956
O        1.97043419       1.97038596      10.43722583       0.10678408       0.04567693      -0.77050742
O        3.54692153       2.36452183      14.55747838      -0.52465057      -0.00584155       0.02941728
10
Lattice="3.940949890606662 0.0 0.0 0.0 3.940949890606662 0.0 0.0 0.0 26.940967945119528" Properties=species:S:1:pos:R:3:forces:R:3 tau=tau41 tau_p=4 tau_q=1 stage=B constraint=xy_fixed_z_free force_label=raw_dft energy=-15499.042548086072 free_energy=-15499.042548086072 stress="0.002120025933495534 0.0003837898831533708 0.004439292069489349 0.0003837898831533708 -0.0020722817375051624 0.0020575912156619715 0.004439292069489349 0.0020575912156619715 -0.0197596700367074" pbc="T T T"
Sr       0.00003612       0.00009431      10.77006794      -0.00394536      -0.01108377      -0.65047907
Sr       1.57628196       0.39408097      14.99357280      -0.11176457      -0.34516623      -0.47337043
Ti       1.97047269       1.97057450      12.19201333       0.26384943       0.29726041      -0.26262867
Ti       3.54658072       2.36450576      16.34500745      -0.05854736       0.00212399       0.29370714
O        0.00000902       1.97050521      12.15481052       0.44353201      -0.25762916      -0.01687441
O        1.57656794       2.36457356      16.42185995       0.01102335       0.04187556       0.75527467
O        1.97049401       3.94093312      12.38588426      -0.17548730       0.27133829       0.19092035
O        3.54695139       0.39409940      16.43576966      -0.01592516       0.00188976       0.78264200
O        1.97043419       1.97038596      10.40303755       0.09498684       0.03937902      -0.58580940
O        3.54692153       2.36452183      14.57329649      -0.44772213      -0.03998760      -0.03338218
10
Lattice="3.940949890606662 0.0 0.0 0.0 3.940949890606662 0.0 0.0 0.0 26.940967945119528" Properties=species:S:1:pos:R:3:forces:R:3 tau=tau41 tau_p=4 tau_q=1 stage=B constraint=xy_fixed_z_free force_label=raw_dft energy=-15499.137113767569 free_energy=-15499.137113767569 stress="0.0020456551666643784 0.0003461454209301933 0.00383422620107291 0.0003461454209301933 -0.00070330873324278 0.0020768725255811598 0.00383422620107291 0.0020768725255811598 -0.01604021353753442" pbc="T T T"
Sr       0.00003612       0.00009431      10.74388058      -0.00484293      -0.01066468      -0.76321860
Sr       1.57628196       0.39408097      15.02985049      -0.08588127      -0.31055892      -0.62441091
Ti       1.97047269       1.97057450      12.14917755       0.24762629       0.25539976      -0.11643318
Ti       3.54658072       2.36450576      16.36898856      -0.05311745      -0.00087083       0.35634744
O        0.00000902       1.97050521      12.10153135       0.37076619      -0.21087314       0.22959874
O        1.57656794       2.36457356      16.46440591       0.00963752       0.03609597       0.62572938
O        1.97049401       3.94093312      12.38725768      -0.17911564       0.27642084      -0.00207539
O        3.54695139       0.39409940      16.48470260      -0.01407422       0.00293003       0.60771237
O        1.97043419       1.97038596      10.35434356       0.08250567       0.03235373      -0.34410205
O        3.54692153       2.36452183      14.59118168      -0.37350416      -0.07023277       0.03085247
10
Lattice="3.940949890606662 0.0 0.0 0.0 3.940949890606662 0.0 0.0 0.0 26.940967945119528" Properties=species:S:1:pos:R:3:forces:R:3 tau=tau41 tau_p=4 tau_q=1 stage=B constraint=xy_fixed_z_free force_label=raw_dft energy=-15499.243614906252 free_energy=-15499.243614906252 stress="0.0038259627825361154 0.00029748306732462236 0.0032172242836588792 0.00029748306732462236 0.003069400907611767 0.0020860541017331544 0.0032172242836588792 0.0020860541017331544 -0.010021690369902015" pbc="T T T"
Sr       0.00003612       0.00009431      10.68766585      -0.00523528      -0.00896672      -0.75003116
Sr       1.57628196       0.39408097      15.06245847      -0.06362760      -0.27533764      -0.53793392
Ti       1.97047269       1.97057450      12.08965525       0.22797637       0.21370675       0.06222764
Ti       3.54658072       2.36450576      16.41125299      -0.04800841      -0.00376564       0.42705381
O        0.00000902       1.97050521      12.03694713       0.29836701      -0.16378878       0.36503340
O        1.57656794       2.36457356      16.53657902       0.00801259       0.02972118       0.31586517
O        1.97049401       3.94093312      12.38639530      -0.17842093       0.27716286      -0.33770489
O        3.54695139       0.39409940      16.56462136      -0.01186333       0.00394279       0.25024933
O        1.97043419       1.97038596      10.28177647       0.06800002       0.02460571      -0.01042479
O        3.54692153       2.36452183      14.61796810      -0.29520044      -0.09728077       0.21566593
10
Lattice="3.940949890606662 0.0 0.0 0.0 3.940949890606662 0.0 0.0 0.0 26.940967945119528" Properties=species:S:1:pos:R:3:forces:R:3 tau=tau41 tau_p=4 tau_q=1 stage=B constraint=xy_fixed_z_free force_label=raw_dft energy=-15499.307082057698 free_energy=-15499.307082057698 stress="0.0066612334982720225 0.00025616597464064704 0.0028876056998022753 0.00025616597464064704 0.007404941166583578 0.002101662781191545 0.0028876056998022753 0.002101662781191545 -0.004870826148633091" pbc="T T T"
Sr       0.00003612       0.00009431      10.62379529      -0.00474857      -0.00712298      -0.56546786
Sr       1.57628196       0.39408097      15.07273078      -0.05492673      -0.25822052      -0.27676023
Ti       1.97047269       1.97057450      12.04625467       0.21602280       0.19343746       0.14454845
Ti       3.54658072       2.36450576      16.45572068      -0.04691209      -0.00577881       0.41236201
O        0.00000902       1.97050521      11.99680394       0.25824623      -0.13744115       0.31108908
O        1.57656794       2.36457356      16.60089619       0.00697360       0.02587275       0.03245966
O        1.97049401       3.94093312      12.37616270      -0.17341679       0.27240581      -0.57092477
O        3.54695139       0.39409940      16.63312071      -0.01019931       0.00446601      -0.05041548
O        1.97043419       1.97038596      10.22465399       0.05886206       0.02021890       0.19374291
O        3.54692153       2.36452183      14.64518100      -0.24990094      -0.10783721       0.36936648
10
Lattice="3.940949890606662 0.0 0.0 0.0 3.940949890606662 0.0 0.0 0.0 26.940967945119528" Properties=species:S:1:pos:R:3:forces:R:3 tau=tau41 tau_p=4 tau_q=1 stage=B constraint=xy_fixed_z_free force_label=raw_dft energy=-15499.348191111643 free_energy=-15499.348191111643 stress="0.00934317189226962 0.00021943967003266895 0.002758145476059153 0.00021943967003266895 0.010765398038213572 0.0021292075096475283 0.002758145476059153 0.0021292075096475283 -0.0016407476583614202" pbc="T T T"
Sr       0.00003612       0.00009431      10.56686150      -0.00367231      -0.00525122      -0.30590188
Sr       1.57628196       0.39408097      15.06933762      -0.05444080      -0.25373266      -0.00736210
Ti       1.97047269       1.97057450      12.02324251       0.20981667       0.18705341       0.10786575
Ti       3.54658072       2.36450576      16.49559978      -0.04723991      -0.00659617       0.30400364
O        0.00000902       1.97050521      11.98027527       0.23935608      -0.12509985       0.18830168
O        1.57656794       2.36457356      16.64446531       0.00627349       0.02393311      -0.11570196
O        1.97049401       3.94093312      12.35503319      -0.16666482       0.26443539      -0.62633333
O        3.54695139       0.39409940      16.67713676      -0.00891916       0.00457245      -0.19273144
O        1.97043419       1.97038596      10.19138327       0.05366432       0.01857365       0.23955817
O        3.54692153       2.36452183      14.67198476      -0.22817332      -0.10788786       0.40830172
10
Lattice="3.940949890606662 0.0 0.0 0.0 3.940949890606662 0.0 0.0 0.0 26.940967945119528" Properties=species:S:1:pos:R:3:forces:R:3 tau=tau41 tau_p=4 tau_q=1 stage=B constraint=xy_fixed_z_free force_label=raw_dft energy=-15499.381489954192 free_energy=-15499.381489954192 stress="0.01174048142555539 0.0001772044197334942 0.002679183921152 0.0001772044197334942 0.013213206240335309 0.002150325134797116 0.002679183921152 0.002150325134797116 0.00038287172553817133" pbc="T T T"
Sr       0.00003612       0.00009431      10.50968300      -0.00229342      -0.00331698       0.00415465
Sr       1.57628196       0.39408097      15.06434321      -0.05675273      -0.25226482       0.23531070
Ti       1.97047269       1.97057450      12.00799818       0.20531879       0.18475973      -0.00378081
Ti       3.54658072       2.36450576      16.53842758      -0.04837042      -0.00694712       0.10893121
O        0.00000902       1.97050521      11.97317353       0.22553974      -0.11708778       0.06904029
O        1.57656794       2.36457356      16.67844177       0.00535612       0.02247273      -0.15413815
O        1.97049401       3.94093312      12.31881014      -0.15762714       0.25175985      -0.54222406
O        3.54695139       0.39409940      16.70907835      -0.00753539       0.00441278      -0.21390190
O        1.97043419       1.97038596      10.16941148       0.04930013       0.01815507       0.16262382
O        3.54692153       2.36452183      14.70595273      -0.21293568      -0.10194321       0.33398399
10
Lattice="3.940949890606662 0.0 0.0 0.0 3.940949890606662 0.0 0.0 0.0 26.940967945119528" Properties=species:S:1:pos:R:3:forces:R:3 tau=tau41 tau_p=4 tau_q=1 stage=B constraint=xy_fixed_z_free force_label=raw_dft energy=-15499.400719967058 free_energy=-15499.400719967058 stress="0.012600795110997275 0.00014598706081671281 0.0026084857847816422 0.00014598706081671281 0.013647494792324652 0.0021301256672627282 0.0026084857847816422 0.0021301256672627282 0.0005802756128060534" pbc="T T T"
Sr       0.00003612       0.00009431      10.47853989      -0.00163239      -0.00219804       0.18043179
Sr       1.57628196       0.39408097      15.06831970      -0.05794367      -0.24808909       0.31562657
Ti       1.97047269       1.97057450      12.00004178       0.19975749       0.18157619      -0.10487298
Ti       3.54658072       2.36450576      16.56555856      -0.04757724      -0.00721760      -0.02308928
O        0.00000902       1.97050521      11.97157637       0.21650154      -0.11305758       0.03540846
O        1.57656794       2.36457356      16.69246254       0.00465601       0.02151319      -0.09358816
O        1.97049401       3.94093312      12.28308775      -0.14980584       0.23901386      -0.39547166
O        3.54695139       0.39409940      16.72019532      -0.00647609       0.00421995      -0.13916636
O        1.97043419       1.97038596      10.16178678       0.04630865       0.01856208       0.03538995
O        3.54692153       2.36452183      14.73375128      -0.20378846      -0.09432349       0.18933167
10
Lattice="3.940949890606662 0.0 0.0 0.0 3.940949890606662 0.0 0.0 0.0 26.940967945119528" Properties=species:S:1:pos:R:3:forces:R:3 tau=tau41 tau_p=4 tau_q=1 stage=B constraint=xy_fixed_z_free force_label=raw_dft energy=-15499.416863256592 free_energy=-15499.416863256592 stress="0.01247408936009975 0.00011844233236072926 0.0024744347729625223 0.00011844233236072926 0.012955203950464263 0.002051164112355575 0.0024744347729625223 0.002051164112355575 -7.98797125223523e-05" pbc="T T T"
Sr       0.00003612       0.00009431      10.45842439      -0.00144547      -0.00147813       0.26013522
Sr       1.57628196       0.39408097      15.08614787      -0.05632953      -0.23542460       0.27699703
Ti       1.97047269       1.97057450      11.98746694       0.18895577       0.17206825      -0.16486865
Ti       3.54658072       2.36450576      16.58879102      -0.04489943      -0.00754773      -0.10211805
O        0.00000902       1.97050521      11.96688322       0.20443921      -0.10806758       0.05669642
O        1.57656794       2.36457356      16.70234711       0.00412174       0.02016182       0.01206619
O        1.97049401       3.94093312      12.24135567      -0.14044240       0.22284522      -0.22830368
O        3.54695139       0.39409940      16.72676018      -0.00528362       0.00392402      -0.02314199
O        1.97043419       1.97038596      10.15398035       0.04262786       0.01888141      -0.10143542
O        3.54692153       2.36452183      14.76316322      -0.19174413      -0.08536268       0.01397266
10
Lattice="3.940949890606662 0.0 0.0 0.0 3.940949890606662 0.0 0.0 0.0 26.940967945119528" Properties=species:S:1:pos:R:3:forces:R:3 tau=tau41 tau_p=4 tau_q=1 stage=B constraint=xy_fixed_z_free force_label=raw_dft energy=-15499.429458861956 free_energy=-15499.429458861956 stress="0.011689982756719418 9.640654959594242e-05 0.002282539831385837 9.640654959594242e-05 0.011744154056016186 0.0019217038886124526 0.002282539831385837 0.0019217038886124526 -0.000884185783437072" pbc="T T T"
Sr       0.00003612       0.00009431      10.44654147      -0.00165682      -0.00119453       0.22984017
Sr       1.57628196       0.39408097      15.11624379      -0.05215663      -0.21489023       0.15206790
Ti       1.97047269       1.97057450      11.96637424       0.17379809       0.15646577      -0.16437577
Ti       3.54658072       2.36450576      16.60880749      -0.04049745      -0.00737701      -0.10886051
O        0.00000902       1.97050521      11.95621332       0.18940417      -0.10142231       0.10339794
O        1.57656794       2.36457356      16.71526933       0.00370496       0.01822809       0.10405460
O        1.97049401       3.94093312      12.19961389      -0.13014436       0.20517300      -0.10189256
O        3.54695139       0.39409940      16.73682276      -0.00416262       0.00349439       0.07350707
O        1.97043419       1.97038596      10.13881242       0.03816443       0.01851811      -0.17377983
O        3.54692153       2.36452183      14.79062125      -0.17645378      -0.07699528      -0.11395926
10
Lattice="3.940949890606662 0.0 0.0 0.0 3.940949890606662 0.0 0.0 0.0 26.940967945119528" Properties=species:S:1:pos:R:3:forces:R:3 tau=tau41 tau_p=4 tau_q=1 stage=B constraint=xy_fixed_z_free force_label=raw_dft energy=-15499.439275504745 free_energy=-15499.439275504745 stress="0.010856295642118317 7.896155490715285e-05 0.0020594275308923704 7.896155490715285e-05 0.01066715517338723 0.0017619444635677479 0.0020594275308923704 0.0017619444635677479 -0.001180750693146495" pbc="T T T"
Sr       0.00003612       0.00009431      10.43428710      -0.00197435      -0.00111432       0.13516546
Sr       1.57628196       0.39408097      15.15358365      -0.04703730      -0.18995516       0.01266243
Ti       1.97047269       1.97057450      11.93508095       0.15632590       0.13742778      -0.11843787
Ti       3.54658072       2.36450576      16.63058989      -0.03565606      -0.00662188      -0.07135840
O        0.00000902       1.97050521      11.93970923       0.17246163      -0.09327885       0.13506082
O        1.57656794       2.36457356      16.73822515       0.00336892       0.01588556       0.14154823
O        1.97049401       3.94093312      12.15757876      -0.11882816       0.18663998      -0.03491198
O        3.54695139       0.39409940      16.75737225      -0.00318637       0.00305061       0.11252562
O        1.97043419       1.97038596      10.11180699       0.03318163       0.01733386      -0.15853679
O        3.54692153       2.36452183      14.81708599      -0.15865558      -0.06936759      -0.15371777
10
Lattice="3.940949890606662 0.0 0.0 0.0 3.940949890606662 0.0 0.0 0.0 26.940967945119528" Properties=species:S:1:pos:R:3:forces:R:3 tau=tau41 tau_p=4 tau_q=1 stage=B constraint=xy_fixed_z_free force_label=raw_dft energy=-15499.445409630951 free_energy=-15499.445409630951 stress="0.010523004427800917 6.702550590955998e-05 0.0018712052197764827 6.702550590955998e-05 0.01019889478963551 0.0016168755603662344 0.0018712052197764827 0.0016168755603662344 -0.0007336079345443619" pbc="T T T"
Sr       0.00003612       0.00009431      10.41852191      -0.00216487      -0.00096365       0.04702985
Sr       1.57628196       0.39408097      15.18636115      -0.04305801      -0.16840546      -0.06234411
Ti       1.97047269       1.97057450      11.90099003       0.14154694       0.12133679      -0.05548363
Ti       3.54658072       2.36450576      16.65323101      -0.03258230      -0.00577675      -0.02498572
O        0.00000902       1.97050521      11.92334475       0.15825680      -0.08607899       0.12050349
O        1.57656794       2.36457356      16.76848636       0.00321902       0.01376903       0.10967195
O        1.97049401       3.94093312      12.12019427      -0.10854812       0.17062792      -0.02491219
O        3.54695139       0.39409940      16.78552141      -0.00240501       0.00274182       0.08292116
O        1.97043419       1.97038596      10.07898406       0.02885858       0.01585831      -0.08280032
O        3.54692153       2.36452183      14.83968500      -0.14312303      -0.06310927      -0.10960073
10
Lattice="3.940949890606662 0.0 0.0 0.0 3.940949890606662 0.0 0.0 0.0 26.940967945119528" Properties=species:S:1:pos:R:3:forces:R:3 tau=tau41 tau_p=4 tau_q=1 stage=B constraint=xy_fixed_z_free force_label=raw_dft energy=-15499.447801375536 free_energy=-15499.447801375536 stress="0.010736935152142388 6.059840260316382e-05 0.0017784713006413378 6.059840260316382e-05 0.010258575034623475 0.0015360776902286829 0.0017784713006413378 0.0015360776902286829 -4.4071565529573677e-05" pbc="T T T"
Sr       0.00003612       0.00009431      10.40573666      -0.00216101      -0.00083098       0.01186076
Sr       1.57628196       0.39408097      15.20264802      -0.04157500      -0.15698282      -0.05828588
Ti       1.97047269       1.97057450      11.87892664       0.13351842       0.11359982      -0.01726856
Ti       3.54658072       2.36450576      16.66877338      -0.03104324      -0.00531293       0.00056693
O        0.00000902       1.97050521      11.91578654       0.15147963      -0.08263268       0.07572644
O        1.57656794       2.36457356      16.79147321       0.00311515       0.01249453       0.05340695
O        1.97049401       3.94093312      12.09637194      -0.10248109       0.16136166      -0.03199481
O        3.54695139       0.39409940      16.80665070      -0.00203246       0.00255645       0.03193747
O        1.97043419       1.97038596      10.05634132       0.02639674       0.01499005      -0.01798487
O        3.54692153       2.36452183      14.85261154      -0.13521714      -0.05924336      -0.04796444
10
Lattice="3.940949890606662 0.0 0.0 0.0 3.940949890606662 0.0 0.0 0.0 26.940967945119528" Properties=species:S:1:pos:R:3:forces:R:3 tau=tau41 tau_p=4 tau_q=1 stage=B constraint=xy_fixed_z_free force_label=raw_dft energy=-15499.448465197247 free_energy=-15499.448465197247 stress="0.011028909273775813 5.876208737276491e-05 0.0017573536754917506 5.876208737276491e-05 0.010359572372295414 0.0015048603313119013 0.0017573536754917506 0.0015048603313119013 0.00032594595339580535" pbc="T T T"
Sr       0.00003612       0.00009431      10.40036092      -0.00214481      -0.00078470       0.00877440
Sr       1.57628196       0.39408097      15.20617075      -0.04165547      -0.15329971      -0.03260287
Ti       1.97047269       1.97057450      11.87075477       0.13071026       0.11141413      -0.00108218
Ti       3.54658072       2.36450576      16.67514849      -0.03072083      -0.00498280       0.00315834
O        0.00000902       1.97050521      11.91631082       0.15045864      -0.08221745       0.03718818
O        1.57656794       2.36457356      16.80149308       0.00312132       0.01204665       0.01883436
O        1.97049401       3.94093312      12.08514296      -0.10002285       0.15772252      -0.02767690
O        3.54695139       0.39409940      16.81512885      -0.00185711       0.00247597       0.00341083
O        1.97043419       1.97038596      10.04784638       0.02549300       0.01482807       0.00494346
O        3.54692153       2.36452183      14.85696295      -0.13338215      -0.05720242      -0.01494814
10
Lattice="3.940949890606662 0.0 0.0 0.0 3.940949890606662 0.0 0.0 0.0 26.940967945119528" Properties=species:S:1:pos:R:3:forces:R:3 tau=tau41 tau_p=4 tau_q=1 stage=B constraint=xy_fixed_z_free force_label=raw_dft energy=-15499.448740712505 free_energy=-15499.448740712505 stress="0.011210704481585307 5.876208737276491e-05 0.0017747986701805401 5.876208737276491e-05 0.01036691763321701 0.0015039421736967019 0.0017747986701805401 0.0015039421736967019 0.0004039893506877588" pbc="T T T"
Sr       0.00003612       0.00009431      10.40156283      -0.00217310      -0.00081144       0.01114368
Sr       1.57628196       0.39408097      15.20307619      -0.04232499      -0.15387744      -0.01190035
Ti       1.97047269       1.97057450      11.87147405       0.13099359       0.11227930       0.00146990
Ti       3.54658072       2.36450576      16.67451142      -0.03108027      -0.00488998      -0.00001234
O        0.00000902       1.97050521      11.92105041       0.15259472      -0.08344207       0.01354971
O        1.57656794       2.36457356      16.80212275       0.00316991       0.01205925       0.00405900
O        1.97049401       3.94093312      12.08291766      -0.09988504       0.15761325      -0.01637201
O        3.54695139       0.39409940      16.81462425      -0.00182728       0.00245643      -0.00621307
O        1.97043419       1.97038596      10.04860254       0.02554340       0.01502450       0.00657020
O        3.54692153       2.36452183      14.85537785      -0.13501146      -0.05641206      -0.00229497
