10
Lattice="3.940949890606662 0.0 0.0 0.0 3.940949890606662 0.0 0.0 0.0 26.940967945119528" Properties=species:S:1:pos:R:3:forces:R:3 tau=tau05 tau_p=0 tau_q=5 stage=A constraint=rigid_scf force_label=raw_dft energy=-15497.072079533777 free_energy=-15497.072079533777 stress="0.004290550535827038 0.0 -1.8363152303989035e-06 0.0 0.022423245278401012 1.8363152303989035e-06 -1.8363152303989035e-06 1.8363152303989035e-06 -0.03966716344946191" pbc="T T T"
Sr       0.00003626       0.00009419      10.75260867      -0.00007842      -0.00008253       0.28998753
Sr       3.94085176       1.97046076      14.64522241       0.00011441      -0.00021700       5.36971810
Ti       1.97047258       1.97057465      12.38212169      -0.00009590       0.00103924      -2.77740951
Ti       1.97020066       3.94088565      16.28444791      -0.00017484       0.00002931       0.42541601
O        0.00000906       1.97050529      12.45001441      -0.00003162      -0.00016121      -1.83956003
O        0.00018798       0.00000355      16.39256827      -0.00001928      -0.00000077      -0.11534560
O        1.97049386       3.94093294      12.44909065      -0.00004628      -0.00068648      -4.26566686
O        1.97057150       1.97047928      16.37955485       0.00037281      -0.00006273      -0.30417385
O        1.97043435       1.97038588      10.49176941       0.00009616       0.00016841       0.31041468
O        1.97054155       3.94090181      14.44792112      -0.00013755      -0.00002623       2.90661953
