10
Lattice="3.940949890606662 0.0 0.0 0.0 3.940949890606662 0.0 0.0 0.0 26.940967945119528" Properties=species:S:1:pos:R:3:forces:R:3 tau=tau49 tau_p=4 tau_q=9 stage=A constraint=rigid_scf force_label=raw_dft energy=-15497.55496241153 free_energy=-15497.55496241153 stress="0.019867094477685737 -0.0009521294469618315 0.012002156345887232 -0.0009521294469618315 0.00529226049400964 -0.0005729303518844579 0.012002156345887232 -0.0005729303518844579 -0.029134059287893803" pbc="T T T"
Sr       0.00003626       0.00009419      10.75260867       0.00674940       0.00724254       0.34350195
Sr       1.57628183       3.54684071      14.64522241      -0.67794900       0.57947523       4.48659790
Ti       1.97047258       1.97057465      12.38212169       0.39661297      -0.89403736      -2.60503401
Ti       3.54658061       1.57631572      16.28444791      -0.13177495      -0.02730692       0.13972634
O        0.00000906       1.97050529      12.45001441       1.41318011       0.81833277      -3.15241056
O        1.57656794       1.57638350      16.39256827       0.01665921      -0.08559357      -0.28057292
O        1.97049386       3.94093294      12.44909065       0.10363988       0.04401086      -1.28948537
O        3.54695145       3.54685924      16.37955485      -0.03517629      -0.00061372      -0.04892218
O        1.97043435       1.97038588      10.49176941       0.18621317      -0.06247164       0.31357791
O        3.54692150       1.57633188      14.44792112      -1.27815477      -0.37903820       2.09302093
