10
Lattice="3.940949890606662 0.0 0.0 0.0 3.940949890606662 0.0 0.0 0.0 26.940967945119528" Properties=species:S:1:pos:R:3:forces:R:3 tau=tau72 tau_p=7 tau_q=2 stage=B constraint=xy_fixed_z_free force_label=raw_dft energy=-15499.452509897343 free_energy=-15499.452509897343 stress="0.010310910018689843 -0.0001882223111158876 -0.0027939536230519313 -0.0001882223111158876 0.010221848730015496 0.0026378668284680246 -0.0027939536230519313 0.0026378668284680246 0.00024239361041265527" pbc="T T T"
Sr       0.00003626       0.00009419      10.42010836       0.00221192      -0.00175941       0.01559940
Sr       2.75856679       0.78817579      15.19593588       0.12595860      -0.20083864      -0.04123844
Ti       1.97047258       1.97057465      11.88618192      -0.20757210       0.19238357      -0.00814320
Ti       0.78791569       2.75860069      16.65476163       0.03833181      -0.02159855       0.01399529
O        0.00000906       1.97050529      11.97946578      -0.25990948      -0.14784409       0.02274295
O        2.75885291       2.75866847      16.78777854      -0.00626938       0.01371478       0.01398886
O        1.97049386       3.94093294      12.05342716       0.16217722       0.26792900      -0.02732311
O        0.78828653       0.78819431      16.79526753      -0.00341442       0.00521317      -0.00077287
O        1.97043435       1.97038588      10.06415034      -0.03713624       0.03001634       0.00735747
O        0.78825658       2.75861684      14.83824147       0.18562182      -0.13721618       0.00379366
10
Lattice="3.940949890606662 0.0 0.0 0.0 3.940949890606662 0.0 0.0 0.0 26.940967945119528" Properties=species:S:1:pos:R:3:forces:R:3 tau=tau72 tau_p=7 tau_q=2 stage=B constraint=xy_fixed_z_free force_label=raw_dft energy=-15499.452580919055 free_energy=-15499.452580919055 stress="0.010343963692837022 -0.0001882223111158876 -0.0027976262535127296 -0.0001882223111158876 0.010228275833321891 0.0026378668284680246 -0.0027976262535127296 0.0026378668284680246 0.000237802822336658" pbc="T T T"
Sr       0.00003612       0.00009431      10.42042967       0.00225100      -0.00179386       0.01439612
Sr       2.75856694       0.78817596      15.19508702       0.12623911      -0.20093968      -0.03490015
Ti       1.97047269       1.97057450      11.88601458      -0.20763638       0.19255737      -0.00135137
Ti       0.78791578       2.75860075      16.65504981       0.03838580      -0.02160035       0.01067291
O        0.00000902       1.97050521      11.97993406      -0.26027946      -0.14812177       0.02093829
O        2.75885292       2.75866855      16.78806649      -0.00625781       0.01371221       0.01187875
O        1.97049401       3.94093312      12.05286491       0.16210908       0.26781510      -0.02458515
O        0.78828644       0.78819439      16.79525192      -0.00343217       0.00521291      -0.00154163
O        1.97043419       1.97038596      10.06430195      -0.03715218       0.03007754       0.00211268
O        0.78825659       2.75861683      14.83831957       0.18577300      -0.13691921       0.00237904
10
Lattice="3.940949890606662 0.0 0.0 0.0 3.940949890606662 0.0 0.0 0.0 26.940967945119528" Properties=species:S:1:pos:R:3:forces:R:3 tau=tau72 tau_p=7 tau_q=2 stage=B constraint=xy_fixed_z_free force_label=raw_dft energy=-15499.45264649849 free_energy=-15499.45264649849 stress="0.010391707888827394 -0.00018730415350068813 -0.0028012988839735274 -0.00018730415350068813 0.010242966355165082 0.0026378668284680246 -0.0028012988839735274 0.0026378668284680246 0.00025708413225584645" pbc="T T T"
Sr       0.00003612       0.00009431      10.42081000       0.00226900      -0.00182188       0.01149437
Sr       2.75856694       0.78817596      15.19415339       0.12654481      -0.20108392      -0.02595683
Ti       1.97047269       1.97057450      11.88595623      -0.20769371       0.19280780      -0.00016352
Ti       0.78791578       2.75860075      16.65534002       0.03849327      -0.02160292       0.00751199
O        0.00000902       1.97050521      11.98048742      -0.26080448      -0.14844264       0.01896651
O        2.75885292       2.75866855      16.78838411      -0.00626629       0.01371478       0.00911122
O        1.97049401       3.94093312      12.05221307       0.16203992       0.26773437      -0.02130673
O        0.78828644       0.78819439      16.79521423      -0.00345608       0.00520160      -0.00271791
O        1.97043419       1.97038596      10.06437495      -0.03717275       0.03015904       0.00145267
O        0.78825659       2.75861683      14.83838654       0.18604631      -0.13666622       0.00160874
10
Lattice="3.940949890606662 0.0 0.0 0.0 3.940949890606662 0.0 0.0 0.0 26.940967945119528" Properties=species:S:1:pos:R:3:forces:R:3 tau=tau72 tau_p=7 tau_q=2 stage=B constraint=xy_fixed_z_free force_label=raw_dft energy=-15499.452722690366 free_energy=-15499.452722690366 stress="0.01044863366096976 -0.00018730415350068813 -0.0028077259872799237 -0.00018730415350068813 0.010242966355165082 0.0026378668284680246 -0.0028077259872799237 0.0026378668284680246 0.0002681020236382399" pbc="T T T"
Sr       0.00003612       0.00009431      10.42141017       0.00232016      -0.00187202       0.00718675
Sr       2.75856694       0.78817596      15.19275293       0.12706623      -0.20128858      -0.01332654
Ti       1.97047269       1.97057450      11.88589485      -0.20783770       0.19321686       0.00078136
Ti       0.78791578       2.75860075      16.65575997       0.03863237      -0.02161141       0.00264412
O        0.00000902       1.97050521      11.98144986      -0.26161952      -0.14895326       0.01592181
O        2.75885292       2.75866855      16.78887144      -0.00626964       0.01371169       0.00527822
O        1.97049401       3.94093312      12.05111737       0.16189748       0.26753691      -0.01536517
O        0.78828644       0.78819439      16.79509653      -0.00348950       0.00518283      -0.00388288
O        1.97043419       1.97038596      10.06448512      -0.03718355       0.03027757       0.00091788
O        0.78825659       2.75861683      14.83848172       0.18648365      -0.13620085      -0.00015555
