Sr Ti O
 1.0000000000000000
     3.9409498906066620    0.0000000000000000    0.0000000000000000
     0.0000000000000000    3.9409498906066620    0.0000000000000000
     0.0000000000000000    0.0000000000000000   26.9409679451195281
 Sr  Ti  O
   2   2   6
Cartesian
  0.0000208705694778  0.0000980273139906 10.7547837774721202
  3.9408235421306861  3.9409256774429133 14.6442221533158694
  1.9704704802101680  1.9705618194213292 12.3815495368471566
  1.9699970882494167  1.9703842011063111 16.2849739166583127
  0.0000062467709771  1.9704877549638915 12.4496485824189396
  0.0003298431428233  1.9704816585946727 16.3887174204318242
  1.9704951118602385  3.9409352786146585 12.4490342265439704
  1.9706722379654686  0.0000204272883612 16.3826897327592498
  1.9704533242891387  1.9704102209861301 10.4914450051403847
  1.9705309196116056  1.9704445159677415 14.4482556381636851
