10
Lattice="3.940949890606662 0.0 0.0 0.0 3.940949890606662 0.0 0.0 0.0 26.940967945119528" Properties=species:S:1:pos:R:3:forces:R:3 tau=tau00 tau_p=0 tau_q=0 stage=C constraint=fixed_layer_xy_centroids force_label=raw_dft projected_fmax_eV_A=0.022057673979356852 energy=-15500.723239074105 pbc="T T T"
Sr       0.00003612       0.00009431      10.75260871      -0.00007765       0.00002263       0.01654479
Sr       3.94085191       3.94093589      14.64522270      -0.00009436      -0.00002880      -0.00917755
Ti       1.97047269       1.97057450      12.38212196       0.00000694      -0.00008639      -0.00692244
Ti       1.97020076       1.97041077      16.28444792      -0.00087752      -0.00009719       0.00592614
O        0.00000902       1.97050521      12.45001446      -0.00001877      -0.00011724      -0.00165013
O        0.00018798       1.97047857      16.39256833       0.00061167       0.00001466      -0.02204901
O        1.97049401       3.94093312      12.44909064       0.00001157      -0.00000771      -0.00026739
O        1.97057142       0.00000441      16.37955481       0.00042989       0.00007893       0.01572281
O        1.97043419       1.97038596      10.49176939       0.00011056       0.00011210      -0.00649409
O        1.97054157       1.97042684      14.44792105      -0.00010233       0.00010876       0.00836714
10
Lattice="3.940949890606662 0.0 0.0 0.0 3.940949890606662 0.0 0.0 0.0 26.940967945119528" Properties=species:S:1:pos:R:3:forces:R:3 tau=tau00 tau_p=0 tau_q=0 stage=C constraint=fixed_layer_xy_centroids force_label=raw_dft projected_fmax_eV_A=0.02179433164070605 energy=-15500.723242339474 pbc="T T T"
Sr       0.00003591       0.00009440      10.75265008      -0.00009719       0.00001748       0.01445063
Sr       3.94085169       3.94093578      14.64519975      -0.00013653      -0.00003317      -0.00801721
Ti       1.97047269       1.97057433      12.38210465      -0.00001491      -0.00007893      -0.00435442
Ti       1.97019858       1.97041049      16.28446273      -0.00064252      -0.00007945       0.00489769
O        0.00000896       1.97050496      12.45001034      -0.00003908      -0.00011570      -0.00163908
O        0.00018952       1.97047857      16.39251321       0.00054970       0.00001080      -0.02178779
O        1.97049402       3.94093314      12.44908997      -0.00001208      -0.00000951      -0.00029028
O        1.97057251       0.00000457      16.37959411       0.00040881       0.00006762       0.01548164
O        1.97043445       1.97038627      10.49175315       0.00008536       0.00011159      -0.00632414
O        1.97054133       1.97042708      14.44794197      -0.00010156       0.00010953       0.00758270
10
Lattice="3.940949890606662 0.0 0.0 0.0 3.940949890606662 0.0 0.0 0.0 26.940967945119528" Properties=species:S:1:pos:R:3:forces:R:3 tau=tau00 tau_p=0 tau_q=0 stage=C constraint=fixed_layer_xy_centroids force_label=raw_dft projected_fmax_eV_A=0.021321954554819035 energy=-15500.723248325978 pbc="T T T"
Sr       0.00003550       0.00009458      10.75272729      -0.00006968       0.00001131       0.01472856
Sr       3.94085107       3.94093555      14.64515692      -0.00009950      -0.00002468      -0.00761484
Ti       1.97047269       1.97057399      12.38207703      -0.00003008      -0.00007893      -0.00613491
Ti       1.97019480       1.97040998      16.28448962      -0.00079319      -0.00007173       0.00580092
O        0.00000884       1.97050445      12.45000209      -0.00003342      -0.00012264      -0.00184862
O        0.00019239       1.97047855      16.39240331       0.00059058       0.00001620      -0.02131393
O        1.97049404       3.94093317      12.44908857       0.00000463      -0.00001234      -0.00047540
O        1.97057458       0.00000485      16.37967233       0.00044454       0.00006531       0.01521090
O        1.97043497       1.97038691      10.49172104       0.00009976       0.00010310      -0.00519389
O        1.97054079       1.97042755      14.44798177      -0.00011390       0.00011441       0.00684171
10
Lattice="3.940949890606662 0.0 0.0 0.0 3.940949890606662 0.0 0.0 0.0 26.940967945119528" Properties=species:S:1:pos:R:3:forces:R:3 tau=tau00 tau_p=0 tau_q=0 stage=C constraint=fixed_layer_xy_centroids force_label=raw_dft projected_fmax_eV_A=0.02071231220843344 energy=-15500.723256761506 pbc="T T T"
Sr       0.00003493       0.00009483      10.75284128      -0.00007945       0.00002005       0.01504481
Sr       3.94085020       3.94093521      14.64509536      -0.00009770      -0.00002211      -0.00736107
Ti       1.97047262       1.97057351      12.38203363       0.00001157      -0.00009822      -0.00526459
Ti       1.97018898       1.97040924      16.28453134      -0.00080861      -0.00009796       0.00525996
O        0.00000864       1.97050368      12.44998908      -0.00003008      -0.00011133      -0.00192910
O        0.00019674       1.97047853      16.39224001       0.00059547       0.00001928      -0.02070381
O        1.97049409       3.94093323      12.44908586      -0.00000154      -0.00000540      -0.00051319
O        1.97057777       0.00000525      16.37978868       0.00041061       0.00008022       0.01530449
O        1.97043575       1.97038786      10.49167645       0.00008947       0.00011056      -0.00448066
O        1.97053994       1.97042826      14.44803827      -0.00008973       0.00010516       0.00464316
10
Lattice="3.940949890606662 0.0 0.0 0.0 3.940949890606662 0.0 0.0 0.0 26.940967945119528" Properties=species:S:1:pos:R:3:forces:R:3 tau=tau00 tau_p=0 tau_q=0 stage=C constraint=fixed_layer_xy_centroids force_label=raw_dft projected_fmax_eV_A=0.019797115542123097 energy=-15500.72326723789 pbc="T T T"
Sr       0.00003416       0.00009518      10.75299344      -0.00008150       0.00000154       0.01313705
Sr       3.94084908       3.94093477      14.64501571      -0.00010542      -0.00003214      -0.00584000
Ti       1.97047260       1.97057281      12.38197723      -0.00001157      -0.00008562      -0.00383686
Ti       1.97018108       1.97040819      16.28458622      -0.00086029      -0.00008870       0.00432485
O        0.00000838       1.97050268      12.44997102      -0.00002057      -0.00010773      -0.00217927
O        0.00020261       1.97047852      16.39202482       0.00063840       0.00002263      -0.01978695
O        1.97049414       3.94093331      12.44908174       0.00000231      -0.00000051      -0.00076105
O        1.97058199       0.00000582      16.37994382       0.00043092       0.00008767       0.01540888
O        1.97043675       1.97038913      10.49162155       0.00009050       0.00010259      -0.00296731
O        1.97053888       1.97042919      14.44810442      -0.00008279       0.00010027       0.00250065
10
Lattice="3.940949890606662 0.0 0.0 0.0 3.940949890606662 0.0 0.0 0.0 26.940967945119528" Properties=species:S:1:pos:R:3:forces:R:3 tau=tau00 tau_p=0 tau_q=0 stage=C constraint=fixed_layer_xy_centroids force_label=raw_dft projected_fmax_eV_A=0.018899686278467914 energy=-15500.723278802727 pbc="T T T"
Sr       0.00003319       0.00009556      10.75317808      -0.00006865       0.00000386       0.01132211
Sr       3.94084768       3.94093419      14.64492282      -0.00012701      -0.00003342      -0.00468764
Ti       1.97047256       1.97057193      12.38191254      -0.00002468      -0.00007533      -0.00234896
Ti       1.97017082       1.97040686      16.28465132      -0.00096442      -0.00010542       0.00350313
O        0.00000808       1.97050145      12.44994685      -0.00000386      -0.00009667      -0.00202757
O        0.00021020       1.97047852      16.39175931       0.00067543       0.00002905      -0.01888758
O        1.97049421       3.94093345      12.44907527       0.00000591      -0.00000720      -0.00058210
O        1.97058733       0.00000658      16.38013939       0.00046768       0.00008613       0.01494197
O        1.97043800       1.97039071      10.49156137       0.00009487       0.00010927      -0.00161877
O        1.97053760       1.97043032      14.44817303      -0.00005528       0.00008973       0.00038592
10
Lattice="3.940949890606662 0.0 0.0 0.0 3.940949890606662 0.0 0.0 0.0 26.940967945119528" Properties=species:S:1:pos:R:3:forces:R:3 tau=tau00 tau_p=0 tau_q=0 stage=C constraint=fixed_layer_xy_centroids force_label=raw_dft projected_fmax_eV_A=0.017155329930105736 energy=-15500.723291047849 pbc="T T T"
Sr       0.00003204       0.00009597      10.75338948      -0.00006839      -0.00000360       0.00816042
Sr       3.94084591       3.94093349      14.64482049      -0.00012444      -0.00002905      -0.00297245
Ti       1.97047242       1.97057089      12.38184493      -0.00000540      -0.00007353      -0.00213890
Ti       1.97015774       1.97040520      16.28472390      -0.00099810      -0.00011519       0.00251248
O        0.00000779       1.97050001      12.44991699      -0.00000926      -0.00009616      -0.00185299
O        0.00021972       1.97047859      16.39144490       0.00068520       0.00002905      -0.01714154
O        1.97049429       3.94093360      12.44906712       0.00000643      -0.00000668      -0.00036792
O        1.97059401       0.00000756      16.38037509       0.00046383       0.00009719       0.01496536
O        1.97043950       1.97039262      10.49150075       0.00008793       0.00010259      -0.00028411
O        1.97053624       1.97043165      14.44823632      -0.00003780       0.00009539      -0.00088060
10
Lattice="3.940949890606662 0.0 0.0 0.0 3.940949890606662 0.0 0.0 0.0 26.940967945119528" Properties=species:S:1:pos:R:3:forces:R:3 tau=tau00 tau_p=0 tau_q=0 stage=C constraint=fixed_layer_xy_centroids force_label=raw_dft projected_fmax_eV_A=0.01577642550394928 energy=-15500.723303292973 pbc="T T T"
Sr       0.00003070       0.00009640      10.75361593      -0.00007199       0.00000386       0.00579964
Sr       3.94084378       3.94093265      14.64471521      -0.00013550      -0.00004217      -0.00148481
Ti       1.97047226       1.97056970      12.38177460      -0.00000591      -0.00006633      -0.00136037
Ti       1.97014156       1.97040311      16.28480036      -0.00094205      -0.00011184       0.00095491
O        0.00000748       1.97049836      12.44988191      -0.00000129      -0.00008587      -0.00164602
O        0.00023135       1.97047871      16.39108592       0.00055510       0.00004757      -0.01576652
O        1.97049438       3.94093377      12.44905815       0.00000900      -0.00000977      -0.00016301
O        1.97060209       0.00000880      16.38065358       0.00050368       0.00008125       0.01423723
O        1.97044123       1.97039486      10.49144492       0.00008485       0.00008485       0.00061886
O        1.97053485       1.97043320      14.44828938       0.00000411       0.00009822      -0.00118965
10
Lattice="3.940949890606662 0.0 0.0 0.0 3.940949890606662 0.0 0.0 0.0 26.940967945119528" Properties=species:S:1:pos:R:3:forces:R:3 tau=tau00 tau_p=0 tau_q=0 stage=C constraint=fixed_layer_xy_centroids force_label=raw_dft projected_fmax_eV_A=0.01394318083944549 energy=-15500.723316626549 pbc="T T T"
Sr       0.00002894       0.00009693      10.75387302      -0.00006094      -0.00002417       0.00486170
Sr       3.94084092       3.94093151      14.64460257      -0.00017124      -0.00003548      -0.00183422
Ti       1.97047205       1.97056823      12.38169725      -0.00001286      -0.00005271       0.00094899
Ti       1.97012021       1.97040034      16.28488148      -0.00108321      -0.00012701      -0.00133209
O        0.00000715       1.97049632      12.44983784      -0.00000386      -0.00007045      -0.00128349
O        0.00024602       1.97047902      16.39064109       0.00075436       0.00004268      -0.01392278
O        1.97049450       3.94093397      12.44904835       0.00000231      -0.00000746       0.00015478
O        1.97061296       0.00001041      16.38101006       0.00049699       0.00011030       0.01365333
O        1.97044340       1.97039765      10.49139316       0.00007071       0.00008279       0.00290997
O        1.97053352       1.97043521      14.44833516       0.00000771       0.00008125      -0.00415593
10
Lattice="3.940949890606662 0.0 0.0 0.0 3.940949890606662 0.0 0.0 0.0 26.940967945119528" Properties=species:S:1:pos:R:3:forces:R:3 tau=tau00 tau_p=0 tau_q=0 stage=C constraint=fixed_layer_xy_centroids force_label=raw_dft projected_fmax_eV_A=0.012455406286656373 energy=-15500.723330232242 pbc="T T T"
Sr       0.00002677       0.00009738      10.75416205      -0.00005836      -0.00001851       0.00355892
Sr       3.94083687       3.94093002      14.64447800      -0.00015170      -0.00003008      -0.00094514
Ti       1.97047175       1.97056650      12.38162728      -0.00002803      -0.00007071       0.00165399
Ti       1.97009141       1.97039659      16.28495249      -0.00122539      -0.00015298      -0.00347845
O        0.00000680       1.97049391      12.44978512       0.00000360      -0.00006762      -0.00151721
O        0.00026587       1.97047952      16.39010217       0.00080527       0.00004808      -0.01197337
O        1.97049465       3.94093422      12.44903973       0.00001028       0.00001363      -0.00000103
O        1.97062723       0.00001268      16.38145951       0.00054790       0.00012316       0.01244285
O        1.97044606       1.97040110      10.49136236       0.00007636       0.00006479       0.00504270
O        1.97053225       1.97043767      14.44835126       0.00002031       0.00009025      -0.00478328
10
Lattice="3.940949890606662 0.0 0.0 0.0 3.940949890606662 0.0 0.0 0.0 26.940967945119528" Properties=species:S:1:pos:R:3:forces:R:3 tau=tau00 tau_p=0 tau_q=0 stage=C constraint=fixed_layer_xy_centroids force_label=raw_dft projected_fmax_eV_A=0.01154610402088106 energy=-15500.72334451822 pbc="T T T"
Sr       0.00002410       0.00009780      10.75447994      -0.00004422      -0.00003060      -0.00110095
Sr       3.94083154       3.94092815      14.64434616      -0.00025891      -0.00004397       0.00064380
Ti       1.97047121       1.97056430      12.38157231      -0.00000823      -0.00004037       0.00294494
Ti       1.97005214       1.97039140      16.28499255      -0.00149355      -0.00017612      -0.00540472
O        0.00000648       1.97049105      12.44971956       0.00001800      -0.00005554      -0.00054147
O        0.00029261       1.97048031      16.38946282       0.00097830       0.00006556      -0.01020934
O        1.97049487       3.94093472      12.44903116       0.00001106      -0.00000668       0.00107086
O        1.97064618       0.00001587      16.38201420       0.00065897       0.00014115       0.01152600
O        1.97044937       1.97040522      10.49137587       0.00007276       0.00007173       0.00515455
O        1.97053117       1.97044076      14.44832543       0.00006608       0.00007508      -0.00408368
10
Lattice="3.940949890606662 0.0 0.0 0.0 3.940949890606662 0.0 0.0 0.0 26.940967945119528" Properties=species:S:1:pos:R:3:forces:R:3 tau=tau00 tau_p=0 tau_q=0 stage=C constraint=fixed_layer_xy_centroids force_label=raw_dft projected_fmax_eV_A=0.009154046600698462 energy=-15500.72335825997 pbc="T T T"
Sr       0.00002087       0.00009803      10.75478378      -0.00008150      -0.00005682      -0.00281253
Sr       3.94082354       3.94092568      14.64422215      -0.00033270      -0.00003908       0.00079216
Ti       1.97047048       1.97056182      12.38154954      -0.00003651      -0.00005656       0.00303930
Ti       1.96999709       1.97038420      16.28497392      -0.00129558      -0.00013781      -0.00652340
O        0.00000625       1.97048775      12.44964858      -0.00001748      -0.00003317       0.00060344
O        0.00032984       1.97048166      16.38871742       0.00098088       0.00006942      -0.00819308
O        1.97049511       3.94093528      12.44903423      -0.00000257      -0.00000489       0.00208516
O        1.97067224       0.00002043      16.38268973       0.00060138       0.00014244       0.00913487
O        1.97045332       1.97041022      10.49144501       0.00002365       0.00007199       0.00578575
O        1.97053092       1.97044452      14.44825564       0.00016044       0.00004448      -0.00391168
