10
Lattice="3.940949890606662 0.0 0.0 0.0 3.940949890606662 0.0 0.0 0.0 26.940967945119528" Properties=species:S:1:pos:R:3:forces:R:3 tau=tau73 tau_p=7 tau_q=3 stage=B constraint=xy_fixed_z_free force_label=raw_dft energy=-15497.667379713239 free_energy=-15497.667379713239 stress="0.013607095857255874 -0.0017830620887173353 -0.008986008579957034 -0.0017830620887173353 0.01326186859394088 0.008983254107111436 -0.008986008579957034 0.008983254107111436 -0.017586390961530297" pbc="T T T"
Sr       0.00003626       0.00009419      10.75260867      -0.00147453       0.00133209       0.52253635
Sr       2.75856679       1.18227078      14.64522241       1.26464517      -1.26280632       4.16697352
Ti       1.97047258       1.97057465      12.38212169      -1.23543564       1.23537573      -3.76014093
Ti       0.78791569       3.15269568      16.28444791       0.06116320      -0.06041707      -0.40888176
O        0.00000906       1.97050529      12.45001441      -0.88829300      -0.67695809      -0.88160788
O        2.75885291       3.15276346      16.39256827      -0.01929150       0.07394056      -0.13450315
O        1.97049386       3.94093294      12.44909065       0.67657577       0.88471608      -0.87453220
O        0.78828653       1.18228930      16.37955485      -0.07571436       0.01717548      -0.09651638
O        1.97043435       1.97038588      10.49176941      -0.15266516       0.15290736       0.39119335
O        0.78825658       3.15271183      14.44792112       0.37049057      -0.36526583       1.07547883
10
Lattice="3.940949890606662 0.0 0.0 0.0 3.940949890606662 0.0 0.0 0.0 26.940967945119528" Properties=species:S:1:pos:R:3:forces:R:3 tau=tau73 tau_p=7 tau_q=3 stage=B constraint=xy_fixed_z_free force_label=raw_dft energy=-15498.212647953867 free_energy=-15498.212647953867 stress="0.010372426578908205 -0.0016884918543517914 -0.007094603892646163 -0.0016884918543517914 0.010074943511583582 0.0070890949469549665 -0.007094603892646163 0.0070890949469549665 -0.0207668889405812" pbc="T T T"
Sr       0.00003612       0.00009431      10.76336341      -0.00153366       0.00137477       0.61266354
Sr       2.75856694       1.18227095      14.73098617       0.91703871      -0.91543460       2.71788513
Ti       1.97047269       1.97057450      12.30473180      -0.84719160       0.84707616      -1.17219344
Ti       0.78791578       3.15269575      16.27603243       0.05189232      -0.05096312       0.04458987
O        0.00000902       1.97050521      12.43186946      -0.83368277      -0.63310870      -0.96904055
O        2.75885292       3.15276354      16.38980002      -0.02042433       0.06484656      -0.00869470
O        1.97049401       3.94093312      12.43109126       0.63256260       0.83073449      -0.96325711
O        0.78828644       1.18228938      16.37756833      -0.06619254       0.01850654       0.03507396
O        1.97043419       1.97038596      10.49982082      -0.13955742       0.13984616      -0.93411597
O        0.78825659       3.15271182      14.47005625       0.30708845      -0.30287852       0.63708877
10
Lattice="3.940949890606662 0.0 0.0 0.0 3.940949890606662 0.0 0.0 0.0 26.940967945119528" Properties=species:S:1:pos:R:3:forces:R:3 tau=tau73 tau_p=7 tau_q=3 stage=B constraint=xy_fixed_z_free force_label=raw_dft energy=-15498.536759889896 free_energy=-15498.536759889896 stress="0.006640115873122435 -0.0014745611300103192 -0.005866109003509297 -0.0014745611300103192 0.006414249099783369 0.005860600057818101 -0.005866109003509297 0.005860600057818101 -0.021695146289547846" pbc="T T T"
Sr       0.00003612       0.00009431      10.78263634       0.00299379      -0.00317326       0.33932982
Sr       2.75856694       1.18227095      14.82532600       0.69861604      -0.69746135       1.42236127
Ti       1.97047269       1.97057450      12.25465698      -0.62813464       0.62793590      -0.08017574
Ti       0.78791578       3.15269575      16.27529795       0.04299862      -0.04177734       0.34623375
O        0.00000902       1.97050521      12.40112217      -0.77113400      -0.57673341      -0.79082968
O        2.75885292       3.15276354      16.38891877      -0.01830625       0.05512831       0.20936364
O        1.97049401       3.94093312      12.40053616       0.57629966       0.76895936      -0.78653825
O        0.78828644       1.18228938      16.37806708      -0.05614364       0.01649054       0.25589547
O        1.97043419       1.97038596      10.47611638      -0.12111464       0.12143217      -1.23296764
O        0.78825659       3.15271182      14.49264214       0.27392482      -0.27080093       0.31732735
10
Lattice="3.940949890606662 0.0 0.0 0.0 3.940949890606662 0.0 0.0 0.0 26.940967945119528" Properties=species:S:1:pos:R:3:forces:R:3 tau=tau73 tau_p=7 tau_q=3 stage=B constraint=xy_fixed_z_free force_label=raw_dft energy=-15498.755170293754 free_energy=-15498.755170293754 stress="0.0011476970189993147 -0.0012092135792176777 -0.00470555777789719 -0.0012092135792176777 0.0010292546866385852 0.004702803305051592 -0.00470555777789719 0.004702803305051592 -0.019655918226189863" pbc="T T T"
Sr       0.00003612       0.00009431      10.80795246       0.00973060      -0.00995994      -0.31640510
Sr       2.75856694       1.18227095      14.95233763       0.49957074      -0.49900587      -0.11008821
Ti       1.97047269       1.97057450      12.20428143      -0.45498884       0.45466514      -0.12700658
Ti       0.78791578       3.15269575      16.28714038       0.03358555      -0.03192256       0.45616075
O        0.00000902       1.97050521      12.34910567      -0.66985028      -0.49039216      -0.37902097
O        2.75885292       3.15276354      16.39692159      -0.01482807       0.04204756       0.58551527
O        1.97049401       3.94093312      12.34882894       0.49024972       0.66870922      -0.37691704
O        0.78828644       1.18228938      16.38888716      -0.04280835       0.01307894       0.62648682
O        1.97043419       1.97038596      10.41718907      -0.09575354       0.09616903      -0.52753560
O        0.78825659       3.15271182      14.52267564       0.24509247      -0.24338911       0.16881066
10
Lattice="3.940949890606662 0.0 0.0 0.0 3.940949890606662 0.0 0.0 0.0 26.940967945119528" Properties=species:S:1:pos:R:3:forces:R:3 tau=tau73 tau_p=7 tau_q=3 stage=B constraint=xy_fixed_z_free force_label=raw_dft energy=-15498.805638431066 free_energy=-15498.805638431066 stress="6.427103306396161e-05 -0.0011054617687001399 -0.004398893134420573 -0.0011054617687001399 -1.9281309919188485e-05 0.004397056819190174 -0.004398893134420573 0.004397056819190174 -0.018214410770326723" pbc="T T T"
Sr       0.00003612       0.00009431      10.80677818       0.01151031      -0.01178619      -0.52270424
Sr       2.75856694       1.18227095      14.98699559       0.44890073      -0.44858885      -0.42294673
Ti       1.97047269       1.97057450      12.18215238      -0.41440809       0.41414301      -0.19784382
Ti       0.78791578       3.15269575      16.30069788       0.03143919      -0.02976283       0.43957277
O        0.00000902       1.97050521      12.32561437      -0.62858099      -0.45574912      -0.24655928
O        2.75885292       3.15276354      16.41348166      -0.01380142       0.03763607       0.62841721
O        1.97049401       3.94093312      12.32547674       0.45569924       0.62786134      -0.24536963
O        0.78828644       1.18228938      16.40721792      -0.03825467       0.01217649       0.66146154
O        1.97043419       1.97038596      10.39081111      -0.08772167       0.08816981      -0.28761157
O        0.78825659       3.15271182      14.53609414       0.23521737      -0.23409997       0.19358427
10
Lattice="3.940949890606662 0.0 0.0 0.0 3.940949890606662 0.0 0.0 0.0 26.940967945119528" Properties=species:S:1:pos:R:3:forces:R:3 tau=tau73 tau_p=7 tau_q=3 stage=B constraint=xy_fixed_z_free force_label=raw_dft energy=-15498.88274107091 free_energy=-15498.88274107091 stress="-0.00026259307794704317 -0.0009585565502682275 -0.004060092974411975 -0.0009585565502682275 -0.00030482832824621796 0.0040610111320271754 -0.004060092974411975 0.0040610111320271754 -0.015950234091244877" pbc="T T T"
Sr       0.00003612       0.00009431      10.79298734       0.01306969      -0.01336048      -0.71826235
Sr       2.75856694       1.18227095      15.02234762       0.39460340      -0.39461420      -0.60700943
Ti       1.97047269       1.97057450      12.14780914      -0.37195352       0.37175452      -0.23685954
Ti       0.78791578       3.15269575      16.32690729       0.02973481      -0.02816181       0.43008205
O        0.00000902       1.97050521      12.29088548      -0.57245458      -0.40856269      -0.10823753
O        2.75885292       3.15276354      16.44793741      -0.01264546       0.03242984       0.58130380
O        1.97049401       3.94093312      12.29094630       0.40863700       0.57225223      -0.10838511
O        0.78828644       1.18228938      16.44457277      -0.03281525       0.01126632       0.59919019
O        1.97043419       1.97038596      10.35268736      -0.07799313       0.07844744      -0.06653964
O        0.78825659       3.15271182      14.55823925       0.22181704      -0.22145117       0.23471781
10
Lattice="3.940949890606662 0.0 0.0 0.0 3.940949890606662 0.0 0.0 0.0 26.940967945119528" Properties=species:S:1:pos:R:3:forces:R:3 tau=tau73 tau_p=7 tau_q=3 stage=B constraint=xy_fixed_z_free force_label=raw_dft energy=-15498.982524943429 free_energy=-15498.982524943429 stress="0.00037369014938617686 -0.000780433972919534 -0.003702929662099389 -0.000780433972919534 0.0003865443559989692 0.003705684134944987 -0.003702929662099389 0.003705684134944987 -0.012937758955775475" pbc="T T T"
Sr       0.00003612       0.00009431      10.76219941       0.01388499      -0.01419532      -0.86290593
Sr       2.75856694       1.18227095      15.05742529       0.34025979      -0.34062669      -0.63516095
Ti       1.97047269       1.97057450      12.10067905      -0.32938351       0.32926370      -0.22280152
Ti       0.78791578       3.15269575      16.36829209       0.02865443      -0.02728378       0.40931680
O        0.00000902       1.97050521      12.24491111      -0.50499114      -0.35251418       0.01039883
O        2.75885292       3.15276354      16.50121911      -0.01123444       0.02698990       0.44525182
O        1.97049401       3.94093312      12.24521435       0.35267488       0.50531870       0.00867079
O        0.78828644       1.18228938      16.50175841      -0.02708194       0.01018414       0.44248145
O        1.97043419       1.97038596      10.30267635      -0.06720478       0.06768480       0.10450197
O        0.78825659       3.15271182      14.59094480       0.20442147      -0.20482102       0.30024700
10
Lattice="3.940949890606662 0.0 0.0 0.0 3.940949890606662 0.0 0.0 0.0 26.940967945119528" Properties=species:S:1:pos:R:3:forces:R:3 tau=tau73 tau_p=7 tau_q=3 stage=B constraint=xy_fixed_z_free force_label=raw_dft energy=-15499.103143075952 free_energy=-15499.103143075952 stress="0.0022145961678610776 -0.0005655850909628623 -0.0032897587352596356 -0.0005655850909628623 0.0023192661359938147 0.003295267680950832 -0.0032897587352596356 0.003295267680950832 -0.008983254107111436" pbc="T T T"
Sr       0.00003612       0.00009431      10.70371226       0.01327075      -0.01359676      -0.92364053
Sr       2.75856694       1.18227095      15.09698363       0.28290877      -0.28363613      -0.49597171
Ti       1.97047269       1.97057450      12.03351797      -0.28294476       0.28289282      -0.14638010
Ti       0.78791578       3.15269575      16.43405133       0.02775609      -0.02668522       0.37515018
O        0.00000902       1.97050521      12.18071247      -0.42225870      -0.28568581       0.09523392
O        2.75885292       3.15276354      16.58176818      -0.00958559       0.02111904       0.21898368
O        1.97049401       3.94093312      12.18131120       0.28588662       0.42306628       0.09172950
O        0.78828644       1.18228938      16.58753685      -0.02086450       0.00896621       0.19030534
O        1.97043419       1.97038596      10.23317975      -0.05460817       0.05509951       0.21754669
O        0.78825659       3.15271182      14.64254632       0.18043951      -0.18153942       0.37704302
10
Lattice="3.940949890606662 0.0 0.0 0.0 3.940949890606662 0.0 0.0 0.0 26.940967945119528" Properties=species:S:1:pos:R:3:forces:R:3 tau=tau73 tau_p=7 tau_q=3 stage=B constraint=xy_fixed_z_free force_label=raw_dft energy=-15499.225368584915 free_energy=-15499.225368584915 stress="0.005618206447405445 -0.00032594595339580535 -0.0027884446773607345 -0.00032594595339580535 0.005883553998198086 0.0027939536230519313 -0.0027884446773607345 0.0027939536230519313 -0.004046320610183984" pbc="T T T"
Sr       0.00003612       0.00009431      10.59659498       0.01023865      -0.01055515      -0.82036060
Sr       2.75856694       1.18227095      15.14841690       0.22180418      -0.22285217      -0.16259656
Ti       1.97047269       1.97057450      11.93462697      -0.22645788       0.22653373       0.00525842
Ti       0.78791578       3.15269575      16.54128467       0.02329162      -0.02269898       0.30486984
O        0.00000902       1.97050521      12.08652256      -0.32271227      -0.20947934       0.11044688
O        2.75885292       3.15276354      16.70357636      -0.00733022       0.01521039      -0.08155873
O        1.97049401       3.94093312      12.08746357       0.20963695       0.32381913       0.10518949
O        0.78828644       1.18228938      16.71620452      -0.01462906       0.00722994      -0.13866011
O        1.97043419       1.97038596      10.13195956      -0.04009610       0.04059438       0.23804456
O        0.78825659       3.15271182      14.72866986       0.14625412      -0.14780192       0.43936682
10
Lattice="3.940949890606662 0.0 0.0 0.0 3.940949890606662 0.0 0.0 0.0 26.940967945119528" Properties=species:S:1:pos:R:3:forces:R:3 tau=tau73 tau_p=7 tau_q=3 stage=B constraint=xy_fixed_z_free force_label=raw_dft energy=-15499.28580697328 free_energy=-15499.28580697328 stress="0.008632517898105244 -0.00018546783827028926 -0.0024422992564305415 -0.00018546783827028926 0.00902457119979541 0.0024478082021217383 -0.0024422992564305415 0.0024478082021217383 -0.0009135668271234544" pbc="T T T"
Sr       0.00003612       0.00009431      10.48998847       0.00637274      -0.00665864      -0.57590371
Sr       2.75856694       1.18227095      15.19176079       0.18474790      -0.18586582       0.12977052
Ti       1.97047269       1.97057450      11.85495593      -0.18929284       0.18932550       0.12227087
Ti       0.78791578       3.15269575      16.63842124       0.02079534      -0.02055906       0.19804462
O        0.00000902       1.97050521      12.00874211      -0.25663466      -0.16148482       0.05598911
O        2.75885292       3.15276354      16.80167190      -0.00571376       0.01197157      -0.23243030
O        1.97049401       3.94093312      12.00983931       0.16156349       0.25773587       0.05024347
O        0.78828644       1.18228938      16.81856774      -0.01120487       0.00592048      -0.30232831
O        1.97043419       1.97038596      10.05001352      -0.03105558       0.03157135       0.15287625
O        0.78825659       3.15271182      14.81135895       0.12042199      -0.12195616       0.40146773
10
Lattice="3.940949890606662 0.0 0.0 0.0 3.940949890606662 0.0 0.0 0.0 26.940967945119528" Properties=species:S:1:pos:R:3:forces:R:3 tau=tau73 tau_p=7 tau_q=3 stage=B constraint=xy_fixed_z_free force_label=raw_dft energy=-15499.314465458538 free_energy=-15499.314465458538 stress="0.010543203895335303 -0.00011476970189993147 -0.0022256140592434707 -0.00011476970189993147 0.010981165077785442 0.002231123004934668 -0.0022256140592434707 0.002231123004934668 0.0005316132592004825" pbc="T T T"
Sr       0.00003612       0.00009431      10.40529951       0.00337457      -0.00363040      -0.32037565
Sr       2.75856694       1.18227095      15.22875717       0.16353810      -0.16462748       0.28606017
Ti       1.97047269       1.97057450      11.80297250      -0.16704843       0.16717596       0.15470173
Ti       0.78791578       3.15269575      16.70969886       0.01878834      -0.01868961       0.07962861
O        0.00000902       1.97050521      11.95466049      -0.21639433      -0.13371948       0.00376332
O        2.75885292       3.15276354      16.86360506      -0.00466295       0.01025253      -0.23477694
O        1.97049401       3.94093312      11.95573420       0.13373850       0.21733715      -0.00152672
O        0.78828644       1.18228938      16.88179318      -0.00946037       0.00490258      -0.30629526
O        1.97043419       1.97038596       9.99484650      -0.02584781       0.02634789       0.05689903
O        0.78825659       3.15271182      14.87795250       0.10397413      -0.10534915       0.28192198
10
Lattice="3.940949890606662 0.0 0.0 0.0 3.940949890606662 0.0 0.0 0.0 26.940967945119528" Properties=species:S:1:pos:R:3:forces:R:3 tau=tau73 tau_p=7 tau_q=3 stage=B constraint=xy_fixed_z_free force_label=raw_dft energy=-15499.33086807256 free_energy=-15499.33086807256 stress="0.011451261776767563 -7.712523967675394e-05 -0.0020704454222747635 -7.712523967675394e-05 0.011860760073146518 0.002075036210350761 -0.0020704454222747635 0.002075036210350761 0.000886022098667471" pbc="T T T"
Sr       0.00003612       0.00009431      10.34051132       0.00127218      -0.00150821      -0.09795749
Sr       2.75856694       1.18227095      15.26502156       0.14892189      -0.14992488       0.31329381
Ti       1.97047269       1.97057450      11.77006521      -0.15240780       0.15240420       0.10963467
Ti       0.78791578       3.15269575      16.75966716       0.01801341      -0.01784217      -0.01750227
O        0.00000902       1.97050521      11.91688893      -0.18960909      -0.11578140      -0.02514410
O        2.75885292       3.15276354      16.89964660      -0.00414359       0.00925134      -0.14663027
O        1.97049401       3.94093312      11.91780967       0.11582023       0.19039276      -0.02945970
O        0.78828644       1.18228938      16.91678302      -0.00845713       0.00423589      -0.21245411
O        1.97043419       1.97038596       9.95791528      -0.02247633       0.02295635      -0.01495019
O        0.78825659       3.15271182      14.93101122       0.09306622      -0.09418388       0.12116992
10
Lattice="3.940949890606662 0.0 0.0 0.0 3.940949890606662 0.0 0.0 0.0 26.940967945119528" Properties=species:S:1:pos:R:3:forces:R:3 tau=tau73 tau_p=7 tau_q=3 stage=B constraint=xy_fixed_z_free force_label=raw_dft energy=-15499.339057066421 free_energy=-15499.339057066421 stress="0.01143840757015477 -5.6925772142366004e-05 -0.001965775454142026 -5.6925772142366004e-05 0.011772616942087368 0.001969448084602824 -0.001965775454142026 0.001969448084602824 0.0005114137916660946" pbc="T T T"
Sr       0.00003612       0.00009431      10.30275840       0.00015941      -0.00037204       0.03332227
Sr       2.75856694       1.18227095      15.29745871       0.13895938      -0.13975591       0.22954603
Ti       1.97047269       1.97057450      11.75322129      -0.14283198       0.14289651       0.04761812
Ti       0.78791578       3.15269575      16.78570632       0.01736754      -0.01704616      -0.05896337
O        0.00000902       1.97050521      11.89526772      -0.17354484      -0.10543220      -0.03112860
O        2.75885292       3.15276354      16.91417044      -0.00390705       0.00868287      -0.02960780
O        1.97049401       3.94093312      11.89597542       0.10530442       0.17407345      -0.03434557
O        0.78828644       1.18228938      16.92869127      -0.00803778       0.00382837      -0.08730746
O        1.97043419       1.97038596       9.93776567      -0.02048989       0.02099923      -0.04593507
O        0.78825659       3.15271182      14.96430472       0.08702079      -0.08787414      -0.02319829
10
Lattice="3.940949890606662 0.0 0.0 0.0 3.940949890606662 0.0 0.0 0.0 26.940967945119528" Properties=species:S:1:pos:R:3:forces:R:3 tau=tau73 tau_p=7 tau_q=3 stage=B constraint=xy_fixed_z_free force_label=raw_dft energy=-15499.341822015134 free_energy=-15499.341822015134 stress="0.010959129295020655 -5.50894569119671e-05 -0.0019143586276908567 -5.50894569119671e-05 0.011223558688198097 0.0019180312581516547 -0.0019143586276908567 0.0019180312581516547 7.98797125223523e-05" pbc="T T T"
Sr       0.00003612       0.00009431      10.29341223      -0.00013370      -0.00007328       0.05295495
Sr       2.75856694       1.18227095      15.31702035       0.13383929      -0.13450006       0.10712270
Ti       1.97047269       1.97057450      11.74865304      -0.13860791       0.13865574       0.00563920
Ti       0.78791578       3.15269575      16.79041900       0.01682504      -0.01638590      -0.05811413
O        0.00000902       1.97050521      11.88837653      -0.16719601      -0.10160331      -0.02057834
O        2.75885292       3.15276354      16.91541156      -0.00387414       0.00833423       0.04167964
O        1.97049401       3.94093312      11.88891913       0.10144956       0.16759093      -0.02302191
O        0.78828644       1.18228938      16.92729654      -0.00780253       0.00363348      -0.00706282
O        1.97043419       1.97038596       9.93171677      -0.01968925       0.02020579      -0.03395733
O        0.78825659       3.15271182      14.97409482       0.08518965      -0.08585762      -0.06466196
10
Lattice="3.940949890606662 0.0 0.0 0.0 3.940949890606662 0.0 0.0 0.0 26.940967945119528" Properties=species:S:1:pos:R:3:forces:R:3 tau=tau73 tau_p=7 tau_q=3 stage=B constraint=xy_fixed_z_free force_label=raw_dft energy=-15499.342726113366 free_energy=-15499.342726113366 stress="0.010585439145634479 -5.6925772142366004e-05 -0.0018886502144652723 -5.6925772142366004e-05 0.010802124342821549 0.001890486529695671 -0.0018886502144652723 0.001890486529695671 -9.365207675034407e-05" pbc="T T T"
Sr       0.00003612       0.00009431      10.29372615      -0.00012213      -0.00008690       0.02759256
Sr       2.75856694       1.18227095      15.32703656       0.13107458      -0.13166208       0.02902544
Ti       1.97047269       1.97057450      11.74640863      -0.13657700       0.13659731      -0.01016486
Ti       0.78791578       3.15269575      16.78934533       0.01644400      -0.01592464      -0.03368299
O        0.00000902       1.97050521      11.88571782      -0.16475655      -0.10026325      -0.00973240
O        2.75885292       3.15276354      16.91649707      -0.00388005       0.00809949       0.05541499
O        1.97049401       3.94093312      11.88615912       0.10010693       0.16507356      -0.01172243
O        0.78828644       1.18228938      16.92643157      -0.00763978       0.00355506       0.01392535
O        1.97043419       1.97038596       9.92916696      -0.01935064       0.01986897      -0.01143190
O        0.78825659       3.15271182      14.97483076       0.08470037      -0.08525752      -0.04922351
10
Lattice="3.940949890606662 0.0 0.0 0.0 3.940949890606662 0.0 0.0 0.0 26.940967945119528" Properties=species:S:1:pos:R:3:forces:R:3 tau=tau73 tau_p=7 tau_q=3 stage=B constraint=xy_fixed_z_free force_label=raw_dft energy=-15499.343135780751 free_energy=-15499.343135780751 stress="0.010437615769587367 -5.6925772142366004e-05 -0.0018592691707788897 -5.6925772142366004e-05 0.01061573834693606 0.0018620236436244879 -0.0018592691707788897 0.0018620236436244879 -4.6826038375172033e-05" pbc="T T T"
Sr       0.00003612       0.00009431      10.29117248      -0.00011776      -0.00009307       0.00536306
Sr       2.75856694       1.18227095      15.33529107       0.12824174      -0.12877139      -0.00805141
Ti       1.97047269       1.97057450      11.74106522      -0.13434014       0.13433037      -0.01142110
Ti       0.78791578       3.15269575      16.79173456       0.01615373      -0.01559811      -0.01132057
O        0.00000902       1.97050521      11.88056607      -0.16187383      -0.09857070      -0.00317351
O        2.75885292       3.15276354      16.92265539      -0.00384663       0.00784161       0.04187659
O        1.97049401       3.94093312      11.88092417       0.09841360       0.16212374      -0.00479742
O        0.78828644       1.18228938      16.93087525      -0.00743177       0.00347999       0.00728728
O        1.97043419       1.97038596       9.92385396      -0.01894209       0.01946402       0.00395127
O        0.78825659       3.15271182      14.97718180       0.08374314      -0.08420620      -0.01971419
10
Lattice="3.940949890606662 0.0 0.0 0.0 3.940949890606662 0.0 0.0 0.0 26.940967945119528" Properties=species:S:1:pos:R:3:forces:R:3 tau=tau73 tau_p=7 tau_q=3 stage=B constraint=xy_fixed_z_free force_label=raw_dft energy=-15499.34331415137 free_energy=-15499.34331415137 stress="0.010463324182812952 -5.50894569119671e-05 -0.0018326425999381055 -5.50894569119671e-05 0.010608393086014464 0.0018344789151685044 -0.0018326425999381055 0.0018344789151685044 8.447050059834955e-05" pbc="T T T"
Sr       0.00003612       0.00009431      10.28567139      -0.00015118      -0.00005836      -0.00304239
Sr       2.75856694       1.18227095      15.34196587       0.12567527      -0.12615812      -0.01456761
Ti       1.97047269       1.97057450      11.73435877      -0.13203232       0.13200532      -0.00561323
Ti       0.78791578       3.15269575      16.79692742       0.01584365      -0.01528932       0.00302465
O        0.00000902       1.97050521      11.87411271      -0.15875662      -0.09664777      -0.00097753
O        2.75885292       3.15276354      16.93114881      -0.00378878       0.00760712       0.02101748
O        1.97049401       3.94093312      11.87439521       0.09649067       0.15894971      -0.00225074
O        0.78828644       1.18228938      16.93780125      -0.00723097       0.00340003      -0.00700394
O        1.97043419       1.97038596       9.91728327      -0.01852608       0.01905033       0.00762949
O        0.78825659       3.15271182      14.98165526       0.08247636      -0.08285920       0.00178383
