10
Lattice="3.940949890606662 0.0 0.0 0.0 3.940949890606662 0.0 0.0 0.0 26.940967945119528" Properties=species:S:1:pos:R:3:forces:R:3 tau=tau69 tau_p=6 tau_q=9 stage=B constraint=xy_fixed_z_free force_label=raw_dft energy=-15499.448428325819 free_energy=-15499.448428325819 stress="0.011012382436702222 5.876208737276491e-05 -0.00175827183310695 5.876208737276491e-05 0.01034671816568262 -0.0015030240160815026 -0.00175827183310695 -0.0015030240160815026 0.00031125543155261415" pbc="T T T"
Sr       0.00003626       0.00009419      10.40013090       0.00187048       0.00066926       0.00916110
Sr       2.36447180       3.54684071      15.20638452       0.04131788       0.15302512      -0.03317983
Ti       1.97047258       1.97057465      11.87056906      -0.13051768      -0.11196743      -0.00107498
Ti       0.39382070       1.57631572      16.67536019       0.03178552       0.00517563       0.00252971
O        0.00000906       1.97050529      11.91607954      -0.15042728       0.08194183       0.03787209
O        2.36475792       1.57638350      16.80166330      -0.00403458      -0.01205256       0.01945194
O        1.97049386       3.94093294      12.08496185       0.09985728      -0.15747338      -0.02764064
O        0.39419154       3.54685924      16.81532066       0.00233122      -0.00257187       0.00398007
O        1.97043435       1.97038588      10.04765865      -0.02510554      -0.01415187       0.00500671
O        0.39416159       1.57633188      14.85719074       0.13292243       0.05740528      -0.01610642
10
Lattice="3.940949890606662 0.0 0.0 0.0 3.940949890606662 0.0 0.0 0.0 26.940967945119528" Properties=species:S:1:pos:R:3:forces:R:3 tau=tau69 tau_p=6 tau_q=9 stage=B constraint=xy_fixed_z_free force_label=raw_dft energy=-15499.44850519798 free_energy=-15499.44850519798 stress="0.011081244257842182 5.876208737276491e-05 -0.0017610263059525482 5.876208737276491e-05 0.0103816081550602 -0.001502105858466303 -0.0017610263059525482 -0.001502105858466303 0.000361754100388584" pbc="T T T"
Sr       0.00003612       0.00009431      10.40031961       0.00187639       0.00065332       0.00872658
Sr       2.36447194       3.54684090      15.20570153       0.04140890       0.15318710      -0.02708117
Ti       1.97047269       1.97057450      11.87054685      -0.13053748      -0.11210755       0.00162545
Ti       0.39382079       1.57631578      16.67541246       0.03185211       0.00515300      -0.00017021
O        0.00000902       1.97050521      11.91685910      -0.15083531       0.08218814       0.03334412
O        2.36475793       1.57638358      16.80206387      -0.00404023      -0.01206259       0.01497899
O        1.97049401       3.94093312      12.08439290       0.09984185      -0.15747621      -0.02551614
O        0.39419145       3.54685933      16.81540257       0.00232685      -0.00259476       0.00084461
O        1.97043419       1.97038596      10.04776190      -0.02512302      -0.01415649       0.00280070
O        0.39416160       1.57633185      14.85685917       0.13322968       0.05721604      -0.00955268
10
Lattice="3.940949890606662 0.0 0.0 0.0 3.940949890606662 0.0 0.0 0.0 26.940967945119528" Properties=species:S:1:pos:R:3:forces:R:3 tau=tau69 tau_p=6 tau_q=9 stage=B constraint=xy_fixed_z_free force_label=raw_dft energy=-15499.448574587008 free_energy=-15499.448574587008 stress="0.011112461616758964 5.876208737276491e-05 -0.001764698936413346 5.876208737276491e-05 0.010371508421293007 -0.001502105858466303 -0.001764698936413346 -0.001502105858466303 0.00037185383415577793" pbc="T T T"
Sr       0.00003612       0.00009431      10.40054216       0.00188282       0.00066926       0.00915956
Sr       2.36447194       3.54684090      15.20499920       0.04157859       0.15322129      -0.02157798
Ti       1.97047269       1.97057450      11.87058146      -0.13056910      -0.11225694       0.00179052
Ti       0.39382079       1.57631578      16.67541478       0.03192307       0.00513038      -0.00086672
O        0.00000902       1.97050521      11.91771653      -0.15124514       0.08243548       0.02900719
O        2.36475793       1.57638358      16.80245505      -0.00404563      -0.01205230       0.01069862
O        1.97049401       3.94093312      12.08374006       0.09978837      -0.15741373      -0.02260925
O        0.39419145       3.54685933      16.81543171       0.00231734      -0.00258036      -0.00182111
O        1.97043419       1.97038596      10.04783841      -0.02513382      -0.01419378       0.00304676
O        0.39416160       1.57633185      14.85660060       0.13350325       0.05704095      -0.00682731
10
Lattice="3.940949890606662 0.0 0.0 0.0 3.940949890606662 0.0 0.0 0.0 26.940967945119528" Properties=species:S:1:pos:R:3:forces:R:3 tau=tau69 tau_p=6 tau_q=9 stage=B constraint=xy_fixed_z_free force_label=raw_dft energy=-15499.448655268761 free_energy=-15499.448655268761 stress="0.011170305546516528 5.876208737276491e-05 -0.0017692897244893434 5.876208737276491e-05 0.010368753948447409 -0.0015011877008511037 -0.0017692897244893434 -0.0015011877008511037 0.0003929714593053653" pbc="T T T"
Sr       0.00003612       0.00009431      10.40092937       0.00189567       0.00068237       0.00845842
Sr       2.36447194       3.54684090      15.20401182       0.04178814       0.15335036      -0.01353429
Ti       1.97047269       1.97057450      11.87064376      -0.13062001      -0.11249605       0.00226103
Ti       0.39382079       1.57631578      16.67539591       0.03201872       0.00509644      -0.00155320
O        0.00000902       1.97050521      11.91900266      -0.15184370       0.08278772       0.02290827
O        2.36475793       1.57638358      16.80296359      -0.00405489      -0.01204870       0.00491389
O        1.97049401       3.94093312      12.08274781       0.09970918      -0.15731192      -0.01783471
O        0.39419145       3.54685933      16.81539002       0.00230859      -0.00257213      -0.00519723
O        1.97043419       1.97038596      10.04797583      -0.02514282      -0.01425651       0.00313058
O        0.39416160       1.57633185      14.85625918       0.13394085       0.05676842      -0.00355249
