10
Lattice="3.940949890606662 0.0 0.0 0.0 3.940949890606662 0.0 0.0 0.0 26.940967945119528" Properties=species:S:1:pos:R:3:forces:R:3 tau=tau02 tau_p=0 tau_q=2 stage=A constraint=rigid_scf force_label=raw_dft energy=-15499.787637681844 free_energy=-15499.787637681844 stress="0.00832309878178303 9.181576151994517e-07 -9.181576151994517e-07 9.181576151994517e-07 0.01091781220233668 0.014006494419867635 -9.181576151994517e-07 0.014006494419867635 -0.006158083125142723" pbc="T T T"
Sr       0.00003626       0.00009419      10.75260867      -0.00007328      -0.00053865       0.15197328
Sr       3.94085176       0.78817579      14.64522241      -0.00002597      -0.64165350       1.39492194
Ti       1.97047258       1.97057465      12.38212169      -0.00002931       0.47428960      -0.38816819
Ti       1.97020066       2.75860069      16.28444791      -0.00073996      -0.13192227       0.02869428
O        0.00000906       1.97050529      12.45001441      -0.00005219      -0.17888810      -0.26316732
O        0.00018798       2.75866847      16.39256827       0.00048234      -0.05404202      -0.04367096
O        1.97049386       3.94093294      12.44909065       0.00000051       1.79687972      -1.13154584
O        1.97057150       0.78819431      16.37955485       0.00043015      -0.00540112      -0.04291788
O        1.97043435       1.97038588      10.49176941       0.00010979       0.29424296       0.13741364
O        1.97054155       2.75861684      14.44792112      -0.00010259      -1.55296688       0.15646731
