10
Lattice="3.940949890606662 0.0 0.0 0.0 3.940949890606662 0.0 0.0 0.0 26.940967945119528" Properties=species:S:1:pos:R:3:forces:R:3 tau=tau59 tau_p=5 tau_q=9 stage=A constraint=rigid_scf force_label=raw_dft energy=-15497.108096113292 free_energy=-15497.108096113292 stress="0.022394782392329827 0.0 -9.181576151994517e-07 0.0 0.004301568427209431 0.00070330873324278 -9.181576151994517e-07 0.00070330873324278 -0.03506535748208226" pbc="T T T"
Sr       0.00003626       0.00009419      10.75260867      -0.00009719       0.00933825       0.35712597
Sr       1.97037682       3.54684071      14.64522241      -0.00026559       0.60608718       5.12130043
Ti       1.97047258       1.97057465      12.38212169       0.00006993      -0.95107394      -3.07490286
Ti       3.94067560       1.57631572      16.28444791       0.00038361      -0.05780328       0.20569751
O        0.00000906       1.97050529      12.45001441      -0.00008150       0.92556680      -3.66352581
O        1.97066293       1.57638350      16.39256827      -0.00048157      -0.09908106      -0.31795162
O        1.97049386       3.94093294      12.44909065       0.00007302       0.20366402      -1.54573539
O        0.00009655       3.54685924      16.37955485       0.00036767      -0.00316760      -0.05427085
O        1.97043435       1.97038588      10.49176941       0.00012778      -0.05588010       0.34327055
O        0.00006660       1.57633188      14.44792112      -0.00009642      -0.57765000       2.62899181
