10
Lattice="3.940949890606662 0.0 0.0 0.0 3.940949890606662 0.0 0.0 0.0 26.940967945119528" Properties=species:S:1:pos:R:3:forces:R:3 tau=tau04 tau_p=0 tau_q=4 stage=A constraint=rigid_scf force_label=raw_dft energy=-15497.565970368703 free_energy=-15497.565970368703 stress="0.005210544466256888 0.0 -1.8363152303989035e-06 0.0 0.019745897672479407 0.013205860979413715 -1.8363152303989035e-06 0.013205860979413715 -0.03247523484960461" pbc="T T T"
Sr       0.00003626       0.00009419      10.75260867      -0.00007893       0.00453414       0.28241923
Sr       3.94085176       1.57636577      14.64522241       0.00009102      -0.66114838       4.62447948
Ti       1.97047258       1.97057465      12.38212169      -0.00009359       0.34205931      -2.29938795
Ti       1.97020066       3.54679066      16.28444791      -0.00026791      -0.14860205       0.31404894
O        0.00000906       1.97050529      12.45001441      -0.00005065       0.22051298      -1.50523769
O        0.00018798       3.54685845      16.39256827       0.00007662      -0.04574430      -0.10047023
O        1.97049386       3.94093294      12.44909065      -0.00003780       1.55135762      -3.63362286
O        1.97057150       1.57638429      16.37955485       0.00038618       0.01642164      -0.26100657
O        1.97043435       1.97038588      10.49176941       0.00009462       0.20213499       0.27941592
O        1.97054155       3.54680682      14.44792112      -0.00011956      -1.48152595       2.29936224
