10
Lattice="3.940949890606662 0.0 0.0 0.0 3.940949890606662 0.0 0.0 0.0 26.940967945119528" Properties=species:S:1:pos:R:3:forces:R:3 tau=tau98 tau_p=9 tau_q=8 stage=A constraint=rigid_scf force_label=raw_dft energy=-15499.6016267843 free_energy=-15499.6016267843 stress="0.008883174927054694 0.0008915310443586677 -0.0055741348818758715 0.0008915310443586677 0.010978410604939844 -0.013117717848354566 -0.0055741348818758715 -0.013117717848354566 -0.006703468748571196" pbc="T T T"
Sr       0.00003626       0.00009419      10.75260867       0.00195790      -0.00042012       0.19488499
Sr       3.54675677       3.15274573      14.64522241       0.45217554       0.70806973       1.64009334
Ti       1.97047258       1.97057465      12.38212169      -0.55380919      -0.59852119      -0.63542321
Ti       1.57610567       1.18222073      16.28444791       0.03814566       0.12201479      -0.01608122
O        0.00000906       1.97050529      12.45001441      -0.67257179       0.27628200      -0.41041440
O        3.54704288       1.18228851      16.39256827       0.00747163       0.03942272      -0.04899391
O        1.97049386       3.94093294      12.44909065       0.40844005      -1.64467247      -1.02307409
O        1.57647651       3.15276425      16.37955485      -0.00585980       0.00442950      -0.04505653
O        1.97043435       1.97038588      10.49176941      -0.12776763      -0.27045357       0.17289666
O        1.57644656       1.18223689      14.44792112       0.45181764       1.36384836       0.17116836
