10
Lattice="3.940949890606662 0.0 0.0 0.0 3.940949890606662 0.0 0.0 0.0 26.940967945119528" Properties=species:S:1:pos:R:3:forces:R:3 tau=tau80 tau_p=8 tau_q=0 stage=B constraint=xy_fixed_z_free force_label=raw_dft energy=-15499.786286636634 free_energy=-15499.786286636634 stress="0.011222640530582898 -0.0 -0.014020266784095627 -0.0 0.008030206502534405 0.0 -0.014020266784095627 0.0 -0.006147065233760329" pbc="T T T"
Sr       0.00003626       0.00009419      10.75260867       0.00043632       0.00002931       0.15172131
Sr       3.15266178       3.94093570      14.64522241       0.63931740       0.00002571       1.39311754
Ti       1.97047258       1.97057465      12.38212169      -0.47491592      -0.00032499      -0.38930950
Ti       1.18201068       1.97041071      16.28444791       0.13345902      -0.00008690       0.02924347
O        0.00000906       1.97050529      12.45001441      -1.80128711      -0.00007148      -1.13560870
O        3.15294790       1.97047849      16.39256827       0.00320128       0.00001851      -0.07997622
O        1.97049386       3.94093294      12.44909065       0.17994842       0.00005785      -0.25863369
O        1.18238152       0.00000434      16.37955485       0.05544121       0.00006685      -0.00576159
O        1.97043435       1.97038588      10.49176941      -0.29406015       0.00017226       0.13770366
O        1.18235157       1.97042687      14.44792112       1.55845978       0.00011287       0.15750347
10
Lattice="3.940949890606662 0.0 0.0 0.0 3.940949890606662 0.0 0.0 0.0 26.940967945119528" Properties=species:S:1:pos:R:3:forces:R:3 tau=tau80 tau_p=8 tau_q=0 stage=B constraint=xy_fixed_z_free force_label=raw_dft energy=-15499.851459261563 free_energy=-15499.851459261563 stress="0.010368753948447409 -0.0 -0.013206779137028914 -0.0 0.007374641965281996 0.0 -0.013206779137028914 0.0 -0.006242553625741072" pbc="T T T"
Sr       0.00003612       0.00009431      10.75573140       0.00037975       0.00002134       0.12349214
Sr       3.15266193       3.94093589      14.67389545       0.55915143       0.00001388       1.09029944
Ti       1.97047269       1.97057450      12.37410930      -0.45814359      -0.00031342      -0.36318683
Ti       1.18201077       1.97041077      16.28504980       0.12884261      -0.00006273      -0.02244547
O        0.00000902       1.97050521      12.42664168      -1.68394762      -0.00006608      -0.93833721
O        3.15294791       1.97047857      16.39092228       0.00133980       0.00001131      -0.01780669
O        1.97049401       3.94093312      12.44376751       0.22196128       0.00006248      -0.13328007
O        1.18238144       0.00000441      16.37943623       0.05315036       0.00004834       0.05669308
O        1.97043419       1.97038596      10.49460356      -0.28970882       0.00017226       0.01303626
O        1.18235158       1.97042684      14.45116274       1.46697428       0.00011261       0.19153562
10
Lattice="3.940949890606662 0.0 0.0 0.0 3.940949890606662 0.0 0.0 0.0 26.940967945119528" Properties=species:S:1:pos:R:3:forces:R:3 tau=tau80 tau_p=8 tau_q=0 stage=B constraint=xy_fixed_z_free force_label=raw_dft energy=-15499.908802627126 free_energy=-15499.908802627126 stress="0.009322972424735232 -0.0 -0.012332693087359035 -0.0 0.006590535361901664 0.0 -0.012332693087359035 0.0 -0.006562990633445681" pbc="T T T"
Sr       0.00003612       0.00009431      10.75929646       0.00062812       0.00000694       0.07745551
Sr       3.15266193       3.94093589      14.70543548       0.48105803      -0.00000540       0.78860748
Ti       1.97047269       1.97057450      12.36369312      -0.44419201      -0.00030313      -0.31565331
Ti       1.18201077       1.97041077      16.28447026       0.12280386      -0.00003008       0.00605032
O        0.00000902       1.97050521      12.39957388      -1.55271234      -0.00006068      -0.72241057
O        3.15294791       1.97047857      16.39033825      -0.00080656       0.00000334       0.03705268
O        1.97049401       3.94093312      12.43980560       0.25813182       0.00006762      -0.02967310
O        1.18238144       0.00000441      16.38098205       0.05083945       0.00003317       0.11009361
O        1.97043419       1.97038596      10.49512647      -0.28272236       0.00017638      -0.10153878
O        1.18235158       1.97042684      14.45659840       1.36697173       0.00011184       0.15001667
10
Lattice="3.940949890606662 0.0 0.0 0.0 3.940949890606662 0.0 0.0 0.0 26.940967945119528" Properties=species:S:1:pos:R:3:forces:R:3 tau=tau80 tau_p=8 tau_q=0 stage=B constraint=xy_fixed_z_free force_label=raw_dft energy=-15499.967236761007 free_energy=-15499.967236761007 stress="0.00768681555444981 -0.0 -0.011095016622070174 -0.0 0.0054006030926031755 0.0 -0.011095016622070174 0.0 -0.00698258866359183" pbc="T T T"
Sr       0.00003612       0.00009431      10.76415607       0.00127270      -0.00001028      -0.01955838
Sr       3.15266193       3.94093589      14.75274553       0.37938093      -0.00002340       0.36080394
Ti       1.97047269       1.97057450      12.34603347      -0.42622797      -0.00030365      -0.23451418
Ti       1.18201077       1.97041077      16.28458259       0.11333603       0.00000026       0.05872040
O        0.00000902       1.97050521      12.35729443      -1.36654622      -0.00004268      -0.40925586
O        3.15294791       1.97047857      16.39139967      -0.00360726      -0.00000283       0.11903796
O        1.97049401       3.94093312      12.43643530       0.30025420       0.00007251       0.07811191
O        1.18238144       0.00000441      16.38598290       0.04745871       0.00000771       0.18479187
O        1.97043419       1.97038596      10.49159644      -0.27018720       0.00017921      -0.23352482
O        1.18235158       1.97042684      14.46509356       1.22486609       0.00012290       0.09538716
10
Lattice="3.940949890606662 0.0 0.0 0.0 3.940949890606662 0.0 0.0 0.0 26.940967945119528" Properties=species:S:1:pos:R:3:forces:R:3 tau=tau80 tau_p=8 tau_q=0 stage=B constraint=xy_fixed_z_free force_label=raw_dft energy=-15499.998295290325 free_energy=-15499.998295290325 stress="0.005718285627462185 -0.0 -0.009723289144962193 -0.0 0.004017857724112801 0.0 -0.009723289144962193 0.0 -0.007223145958774087" pbc="T T T"
Sr       0.00003612       0.00009431      10.76753594       0.00226746      -0.00003548      -0.16933465
Sr       3.15266193       3.94093589      14.80909341       0.27812446      -0.00004499      -0.11168975
Ti       1.97047269       1.97057450      12.32140307      -0.40932142      -0.00031110      -0.13310884
Ti       1.18201077       1.97041077      16.28725124       0.10237516       0.00004731       0.12766633
O        0.00000902       1.97050521      12.30377891      -1.16139507      -0.00001851      -0.05011363
O        3.15294791       1.97047857      16.39684923      -0.00623647      -0.00001388       0.20939244
O        1.97049401       3.94093312      12.43599830       0.33624424       0.00008228       0.13541100
O        1.18238144       0.00000441      16.39742929       0.04336063      -0.00001594       0.25681155
O        1.97043419       1.97038596      10.47984332      -0.25203547       0.00018461      -0.31419652
O        1.18235158       1.97042684      14.47613725       1.06661649       0.00012573       0.04916181
10
Lattice="3.940949890606662 0.0 0.0 0.0 3.940949890606662 0.0 0.0 0.0 26.940967945119528" Properties=species:S:1:pos:R:3:forces:R:3 tau=tau80 tau_p=8 tau_q=0 stage=B constraint=xy_fixed_z_free force_label=raw_dft energy=-15500.005346032 free_energy=-15500.005346032 stress="0.005646669333476628 -0.0 -0.00945977790939995 -0.0 0.004118855061784741 0.0 -0.00945977790939995 0.0 -0.006670415074424017" pbc="T T T"
Sr       0.00003612       0.00009431      10.76447867       0.00243021      -0.00003780      -0.19962328
Sr       3.15266193       3.94093589      14.81917129       0.26081142      -0.00004859      -0.16481825
Ti       1.97047269       1.97057450      12.31328712      -0.41010124      -0.00031316      -0.11265006
Ti       1.18201077       1.97041077      16.29075201       0.10088469       0.00004962       0.13998474
O        0.00000902       1.97050521      12.29102075      -1.11858748      -0.00001414       0.00468404
O        3.15294791       1.97047857      16.40244851      -0.00653472      -0.00001440       0.20324596
O        1.97049401       3.94093312      12.43842425       0.34084035       0.00007996       0.09958217
O        1.18238144       0.00000441      16.40530089       0.04237949      -0.00001543       0.24236710
O        1.97043419       1.97038596      10.47093429      -0.24553212       0.00018872      -0.25958809
O        1.18235158       1.97042684      14.47950218       1.03340941       0.00012521       0.04681593
10
Lattice="3.940949890606662 0.0 0.0 0.0 3.940949890606662 0.0 0.0 0.0 26.940967945119528" Properties=species:S:1:pos:R:3:forces:R:3 tau=tau80 tau_p=8 tau_q=0 stage=B constraint=xy_fixed_z_free force_label=raw_dft energy=-15500.015513701637 free_energy=-15500.015513701637 stress="0.005935888982264455 0.0 -0.009213711668526497 0.0 0.004636695956757231 0.0 -0.009213711668526497 0.0 -0.005584234615643065" pbc="T T T"
Sr       0.00003612       0.00009431      10.75692289       0.00245258      -0.00003959      -0.21361059
Sr       3.15266193       3.94093589      14.82710942       0.24585865      -0.00005194      -0.17075827
Ti       1.97047269       1.97057450      12.30228660      -0.41483233      -0.00031753      -0.07414444
Ti       1.18201077       1.97041077      16.29755276       0.10032239       0.00005168       0.14155723
O        0.00000902       1.97050521      12.27722008      -1.07463550      -0.00001183       0.03469010
O        3.15294791       1.97047857      16.41241015      -0.00653060      -0.00001414       0.17221789
O        1.97049401       3.94093312      12.44238977       0.34361482       0.00007019       0.02287690
O        1.18238144       0.00000441      16.41844276       0.04128240      -0.00000977       0.19940756
O        1.97043419       1.97038596      10.45690032      -0.23678060       0.00019618      -0.16510827
O        1.18235158       1.97042684      14.48408521       0.99924793       0.00012676       0.05287191
10
Lattice="3.940949890606662 0.0 0.0 0.0 3.940949890606662 0.0 0.0 0.0 26.940967945119528" Properties=species:S:1:pos:R:3:forces:R:3 tau=tau80 tau_p=8 tau_q=0 stage=B constraint=xy_fixed_z_free force_label=raw_dft energy=-15500.027325619145 free_energy=-15500.027325619145 stress="0.00668051480819121 0.0 -0.008949282275349055 0.0 0.005709104051310191 0.0 -0.008949282275349055 0.0 -0.003797499896464932" pbc="T T T"
Sr       0.00003612       0.00009431      10.74215134       0.00234510      -0.00003702      -0.20235173
Sr       3.15266193       3.94093589      14.83356516       0.23153427      -0.00005528      -0.12376314
Ti       1.97047269       1.97057450      12.28690464      -0.42391295      -0.00031290      -0.01521707
Ti       1.18201077       1.97041077      16.30964536       0.10049748       0.00004217       0.12836772
O        0.00000902       1.97050521      12.26038584      -1.02308000      -0.00001646       0.04283252
O        3.15294791       1.97047857      16.42885858      -0.00619430      -0.00001286       0.11103283
O        1.97049401       3.94093312      12.44708675       0.34472066       0.00005836      -0.09682132
O        1.18238144       0.00000441      16.43949372       0.03977985       0.00000051       0.12138255
O        1.97043419       1.97038596      10.43596737      -0.22465400       0.00020775      -0.03304407
O        1.18235158       1.97042684      14.49126120       0.95896363       0.00012624       0.06758196
10
Lattice="3.940949890606662 0.0 0.0 0.0 3.940949890606662 0.0 0.0 0.0 26.940967945119528" Properties=species:S:1:pos:R:3:forces:R:3 tau=tau80 tau_p=8 tau_q=0 stage=B constraint=xy_fixed_z_free force_label=raw_dft energy=-15500.035215968066 free_energy=-15500.035215968066 stress="0.007864938131798503 0.0 -0.008693116300708409 0.0 0.007281908046146851 0.0 -0.008693116300708409 0.0 -0.0015140419074638957" pbc="T T T"
Sr       0.00003612       0.00009431      10.71915127       0.00180466      -0.00003368      -0.14781221
Sr       3.15266193       3.94093589      14.83739758       0.21972982      -0.00005914      -0.02416271
Ti       1.97047269       1.97057450      12.26923228      -0.43616863      -0.00029902       0.04562114
Ti       1.18201077       1.97041077      16.32739040       0.10141562       0.00002314       0.09486368
O        0.00000902       1.97050521      12.24239364      -0.96880144      -0.00002545       0.02978340
O        3.15294791       1.97047857      16.45090601      -0.00556052      -0.00000746       0.02838729
O        1.97049401       3.94093312      12.44898079       0.34366985       0.00004062      -0.22406727
O        1.18238144       0.00000441      16.46708037       0.03789369       0.00001568       0.01928327
O        1.97043419       1.97038596      10.41110685      -0.21068776       0.00021597       0.09781839
O        1.18235158       1.97042684      14.50168076       0.91670498       0.00012881       0.08028501
10
Lattice="3.940949890606662 0.0 0.0 0.0 3.940949890606662 0.0 0.0 0.0 26.940967945119528" Properties=species:S:1:pos:R:3:forces:R:3 tau=tau80 tau_p=8 tau_q=0 stage=B constraint=xy_fixed_z_free force_label=raw_dft energy=-15500.037750300304 free_energy=-15500.037750300304 stress="0.008369924820158203 0.0 -0.008635272370950842 0.0 0.007843820506648915 0.0 -0.008635272370950842 0.0 -0.0008070605437603181" pbc="T T T"
Sr       0.00003612       0.00009431      10.70871072       0.00133055      -0.00002982      -0.10130378
Sr       3.15266193       3.94093589      14.83717459       0.21780843      -0.00005811       0.01935655
Ti       1.97047269       1.97057450      12.26503224      -0.44158902      -0.00029131       0.04305184
Ti       1.18201077       1.97041077      16.33497489       0.10210056       0.00001851       0.06923467
O        0.00000902       1.97050521      12.23818009      -0.95404999      -0.00003317       0.02371843
O        3.15294791       1.97047857      16.45849319      -0.00526459      -0.00000694       0.00667587
O        1.97049401       3.94093312      12.44482086       0.34254936       0.00003162      -0.22891123
O        1.18238144       0.00000441      16.47615161       0.03695729       0.00002057      -0.00747445
O        1.97043419       1.97038596      10.40515253      -0.20662773       0.00021854       0.10286058
O        1.18235158       1.97042684      14.50662924       0.90678540       0.00013010       0.07279127
10
Lattice="3.940949890606662 0.0 0.0 0.0 3.940949890606662 0.0 0.0 0.0 26.940967945119528" Properties=species:S:1:pos:R:3:forces:R:3 tau=tau80 tau_p=8 tau_q=0 stage=B constraint=xy_fixed_z_free force_label=raw_dft energy=-15500.040634843048 free_energy=-15500.040634843048 stress="0.008848284937677116 0.0 -0.008577428441193278 0.0 0.008302899314248642 0.0 -0.008577428441193278 0.0 -0.00025616597464064704" pbc="T T T"
Sr       0.00003612       0.00009431      10.69722611       0.00076156      -0.00002854      -0.03947826
Sr       3.15266193       3.94093589      14.83733706       0.21549830      -0.00005579       0.05317067
Ti       1.97047269       1.97057450      12.26211322      -0.44675540      -0.00029079       0.02182789
Ti       1.18201077       1.97041077      16.34324392       0.10266775       0.00002751       0.03493486
O        0.00000902       1.97050521      12.23505444      -0.94007425      -0.00004242       0.02506928
O        3.15294791       1.97047857      16.46557509      -0.00501108      -0.00000746      -0.00434722
O        1.97049401       3.94093312      12.43611913       0.34140753       0.00003008      -0.19462762
O        1.18238144       0.00000441      16.48425376       0.03573216       0.00002160      -0.02215108
O        1.97043419       1.97038596      10.40165909      -0.20289963       0.00022060       0.07159982
O        1.18235158       1.97042684      14.51273816       0.89867306       0.00012547       0.05400165
10
Lattice="3.940949890606662 0.0 0.0 0.0 3.940949890606662 0.0 0.0 0.0 26.940967945119528" Properties=species:S:1:pos:R:3:forces:R:3 tau=tau80 tau_p=8 tau_q=0 stage=B constraint=xy_fixed_z_free force_label=raw_dft energy=-15500.043351219443 free_energy=-15500.043351219443 stress="0.009345008207500019 0.0 -0.008477349261136538 0.0 0.008664653414637227 0.0 -0.008477349261136538 0.0 0.0002056673058046772" pbc="T T T"
Sr       0.00003612       0.00009431      10.68245921      -0.00003574      -0.00002263       0.04720931
Sr       3.15266193       3.94093589      14.83962461       0.21019257      -0.00005605       0.07291931
Ti       1.97047269       1.97057450      12.25924423      -0.45090130      -0.00027537      -0.02609490
Ti       1.18201077       1.97041077      16.35411344       0.10304776       0.00000617      -0.00999336
O        0.00000902       1.97050521      12.23223970      -0.92197651      -0.00004859       0.03752499
O        3.15294791       1.97047857      16.47385322      -0.00487635      -0.00000437      -0.00422587
O        1.97049401       3.94093312      12.41889222       0.33991938       0.00002700      -0.10184062
O        1.18238144       0.00000441      16.49308945       0.03370896       0.00002674      -0.02482323
O        1.97043419       1.97038596      10.39981302      -0.19819657       0.00021983      -0.00789200
O        1.18235158       1.97042684      14.52199087       0.88911781       0.00012727       0.01721636
10
Lattice="3.940949890606662 0.0 0.0 0.0 3.940949890606662 0.0 0.0 0.0 26.940967945119528" Properties=species:S:1:pos:R:3:forces:R:3 tau=tau80 tau_p=8 tau_q=0 stage=B constraint=xy_fixed_z_free force_label=raw_dft energy=-15500.044027422333 free_energy=-15500.044027422333 stress="0.009328481370426429 0.0 -0.008418587173763772 0.0 0.008553556343198092 0.0 -0.008418587173763772 0.0 0.00014874153366231118" pbc="T T T"
Sr       0.00003612       0.00009431      10.68029269      -0.00015761      -0.00002263       0.05905490
Sr       3.15266193       3.94093589      14.84265110       0.20586823      -0.00005579       0.05276495
Ti       1.97047269       1.97057450      12.25818504      -0.44881794      -0.00028462      -0.04180948
Ti       1.18201077       1.97041077      16.35629788       0.10279476       0.00001054      -0.01559271
O        0.00000902       1.97050521      12.23229762      -0.91682042      -0.00004937       0.04522982
O        3.15294791       1.97047857      16.47525165      -0.00506250      -0.00000334       0.00515943
O        1.97049401       3.94093312      12.41138132       0.33961445       0.00003265      -0.05441071
O        1.18238144       0.00000441      16.49400373       0.03295100       0.00002520      -0.01469308
O        1.97043419       1.97038596      10.40014784      -0.19657189       0.00021983      -0.03946283
O        1.18235158       1.97042684      14.52481109       0.88620141       0.00012753       0.00375947
10
Lattice="3.940949890606662 0.0 0.0 0.0 3.940949890606662 0.0 0.0 0.0 26.940967945119528" Properties=species:S:1:pos:R:3:forces:R:3 tau=tau80 tau_p=8 tau_q=0 stage=B constraint=xy_fixed_z_free force_label=raw_dft energy=-15500.044636821274 free_energy=-15500.044636821274 stress="0.009186166940070515 0.0 -0.008332280357935025 0.0 0.008291881422866248 0.0 -0.008332280357935025 0.0 6.427103306396162e-06" pbc="T T T"
Sr       0.00003612       0.00009431      10.68077282      -0.00010927      -0.00002340       0.04868821
Sr       3.15266193       3.94093589      14.84764162       0.19901830      -0.00005682       0.01391224
Ti       1.97047269       1.97057450      12.25584888      -0.44312654      -0.00028411      -0.04545659
Ti       1.18201077       1.97041077      16.35738543       0.10240755       0.00001363      -0.01051710
O        0.00000902       1.97050521      12.23328319      -0.91250765      -0.00005065       0.04695966
O        3.15294791       1.97047857      16.47627703      -0.00548776      -0.00000463       0.01681604
O        1.97049401       3.94093312      12.40331611       0.33905677       0.00003522      -0.00731427
O        1.18238144       0.00000441      16.49396503       0.03212979       0.00002108      -0.00069600
O        1.97043419       1.97038596      10.39955608      -0.19423990       0.00022111      -0.05586364
O        1.18235158       1.97042684      14.52727378       0.88285846       0.00012830      -0.00652880
10
Lattice="3.940949890606662 0.0 0.0 0.0 3.940949890606662 0.0 0.0 0.0 26.940967945119528" Properties=species:S:1:pos:R:3:forces:R:3 tau=tau80 tau_p=8 tau_q=0 stage=B constraint=xy_fixed_z_free force_label=raw_dft energy=-15500.044989072638 free_energy=-15500.044989072638 stress="0.009084251444783375 0.0 -0.008268927482486262 0.0 0.008110086215056758 0.0 -0.008268927482486262 0.0 -3.305367414718026e-05" pbc="T T T"
Sr       0.00003612       0.00009431      10.68236859       0.00003162      -0.00002571       0.02759308
Sr       3.15266193       3.94093589      14.85126102       0.19371077      -0.00005836      -0.01173734
Ti       1.97047269       1.97057450      12.25292766      -0.43751897      -0.00028359      -0.03402444
Ti       1.18201077       1.97041077      16.35782031       0.10230085       0.00001568      -0.00157994
O        0.00000902       1.97050521      12.23478539      -0.91126607      -0.00005039       0.03528068
O        3.15294791       1.97047857      16.47750886      -0.00587548      -0.00000514       0.01978181
O        1.97049401       3.94093312      12.39854853       0.33814043       0.00003754       0.01111822
O        1.18238144       0.00000441      16.49414456       0.03159911       0.00001825       0.00506944
O        1.97043419       1.97038596      10.39738225      -0.19197142       0.00022446      -0.04361568
O        1.18235158       1.97042684      14.52857280       0.88084889       0.00012753      -0.00788557
10
Lattice="3.940949890606662 0.0 0.0 0.0 3.940949890606662 0.0 0.0 0.0 26.940967945119528" Properties=species:S:1:pos:R:3:forces:R:3 tau=tau80 tau_p=8 tau_q=0 stage=B constraint=xy_fixed_z_free force_label=raw_dft energy=-15500.045200096922 free_energy=-15500.045200096922 stress="0.009071397238170582 0.0 -0.008227610389802287 0.0 0.008042142551531998 0.0 -0.008227610389802287 0.0 4.958051122077039e-05" pbc="T T T"
Sr       0.00003612       0.00009431      10.68363749       0.00018975      -0.00002674       0.00719806
Sr       3.15266193       3.94093589      14.85320645       0.19011919      -0.00006042      -0.01982783
Ti       1.97047269       1.97057450      12.24970013      -0.43300283      -0.00028848      -0.01385799
Ti       1.18201077       1.97041077      16.35851158       0.10253585       0.00002545       0.00449403
O        0.00000902       1.97050521      12.23654320      -0.91196258      -0.00005219       0.01357851
O        3.15294791       1.97047857      16.47942322      -0.00616833      -0.00000617       0.01466454
O        1.97049401       3.94093312      12.39573565       0.33690502       0.00003780       0.01051735
O        1.18238144       0.00000441      16.49504666       0.03123685       0.00001774       0.00309972
O        1.97043419       1.97038596      10.39410991      -0.18975024       0.00022651      -0.01596218
O        1.18235158       1.97042684      14.52940567       0.87989758       0.00012650      -0.00390448
