10
Lattice="3.940949890606662 0.0 0.0 0.0 3.940949890606662 0.0 0.0 0.0 26.940967945119528" Properties=species:S:1:pos:R:3:forces:R:3 tau=tau35 tau_p=3 tau_q=5 stage=B constraint=xy_fixed_z_free force_label=raw_dft energy=-15499.120246110993 free_energy=-15499.120246110993 stress="0.01044955181858496 0.0 0.0023807826962121783 0.0 0.007897073648330484 1.8363152303989035e-06 0.0023807826962121783 1.8363152303989035e-06 -0.0024386266259697436" pbc="T T T"
Sr       0.00003626       0.00009419      10.46862343      -0.00578344      -0.00008973      -0.61235527
Sr       1.18218684       1.97046076      15.21544121      -0.26510285      -0.00013498       0.24075656
Ti       1.97047258       1.97057465      11.83404867       0.17131980      -0.00012650       0.03376861
Ti       3.15248562       3.94088565      16.65636284      -0.00314112       0.00009976       0.26203398
O        0.00000906       1.97050529      12.09401422       0.26236128      -0.00013498      -0.26461614
O        1.18247295       0.00000355      16.83427663       0.00482673      -0.00000489      -0.31053784
O        1.97049386       3.94093294      11.86701393      -0.12289719      -0.00002777       0.59649053
O        3.15285647       1.97047928      16.83775058       0.02192894      -0.00003522      -0.33726394
O        1.97043435       1.97038588      10.03812588       0.02096143       0.00039235      -0.06548368
O        3.15282651       3.94090181      14.82966163      -0.08447385       0.00006171       0.45720719
10
Lattice="3.940949890606662 0.0 0.0 0.0 3.940949890606662 0.0 0.0 0.0 26.940967945119528" Properties=species:S:1:pos:R:3:forces:R:3 tau=tau35 tau_p=3 tau_q=5 stage=B constraint=xy_fixed_z_free force_label=raw_dft energy=-15499.145117860076 free_energy=-15499.145117860076 stress="0.010539531264874506 0.0 0.0023486471796801975 0.0 0.00813763094351274 1.8363152303989035e-06 0.0023486471796801975 1.8363152303989035e-06 -0.002721419171451175" pbc="T T T"
Sr       0.00003612       0.00009431      10.45602010      -0.00492623      -0.00008356      -0.47638505
Sr       1.18218697       1.97046093      15.22039652      -0.26202652      -0.00014295       0.20451223
Ti       1.97047269       1.97057450      11.83474377       0.17050733      -0.00011596       0.05667997
Ti       3.15248573       3.94088573      16.66175608      -0.00289481       0.00012110       0.18191480
O        0.00000902       1.97050521      12.08856803       0.25606722      -0.00014475      -0.27673632
O        1.18247295       0.00000361      16.82788532       0.00460639      -0.00001003      -0.21097701
O        1.97049401       3.94093312      11.87929098      -0.12338596      -0.00003008       0.47452948
O        3.15285639       1.97047936      16.83080920       0.02191608      -0.00005116      -0.23623450
O        1.97043419       1.97038596      10.03677821       0.02091438       0.00039441      -0.08538094
O        3.15282654       3.94090180      14.83907175      -0.08077789       0.00006299       0.36807733
10
Lattice="3.940949890606662 0.0 0.0 0.0 3.940949890606662 0.0 0.0 0.0 26.940967945119528" Properties=species:S:1:pos:R:3:forces:R:3 tau=tau35 tau_p=3 tau_q=5 stage=B constraint=xy_fixed_z_free force_label=raw_dft energy=-15499.166451312913 free_energy=-15499.166451312913 stress="0.010605638613168867 0.0 0.0023119208750722194 0.0 0.00847551294590614 1.8363152303989035e-06 0.0023119208750722194 1.8363152303989035e-06 -0.002910559640182262" pbc="T T T"
Sr       0.00003612       0.00009431      10.44215644      -0.00396978      -0.00008305      -0.34347393
Sr       1.18218697       1.97046093      15.22632738      -0.25856325      -0.00013370       0.16734745
Ti       1.97047269       1.97057450      11.83635649       0.16996586      -0.00010747       0.02372537
Ti       3.15248573       3.94088573      16.66707664      -0.00271637       0.00011647       0.12997621
O        0.00000902       1.97050521      12.08060020       0.24867684      -0.00015221      -0.27111563
O        1.18247295       0.00000361      16.82170851       0.00441741      -0.00000823      -0.11016714
O        1.97049401       3.94093312      11.89308796      -0.12414520      -0.00002803       0.35255815
O        3.15285639       1.97047936      16.82390275       0.02192457      -0.00006273      -0.13325796
O        1.97043419       1.97038596      10.03433511       0.02095243       0.00038849      -0.06719630
O        3.15282654       3.94090180      14.84976848      -0.07654251       0.00007019       0.25160378
10
Lattice="3.940949890606662 0.0 0.0 0.0 3.940949890606662 0.0 0.0 0.0 26.940967945119528" Properties=species:S:1:pos:R:3:forces:R:3 tau=tau35 tau_p=3 tau_q=5 stage=B constraint=xy_fixed_z_free force_label=raw_dft energy=-15499.186674405231 free_energy=-15499.186674405231 stress="0.0105496309986417 -0.0 0.0022494861572386568 -0.0 0.008962136481961848 1.8363152303989035e-06 0.0022494861572386568 1.8363152303989035e-06 -0.0032043700770460867" pbc="T T T"
Sr       0.00003612       0.00009431      10.42167130      -0.00265209      -0.00008228      -0.15751966
Sr       1.18218697       1.97046093      15.23587494      -0.25232909      -0.00013113       0.10689207
Ti       1.97047269       1.97057450      11.83800609       0.16888934      -0.00009410      -0.01995973
Ti       3.15248573       3.94088573      16.67491845      -0.00234125       0.00013113       0.06571483
O        0.00000902       1.97050521      12.06601688       0.23698963      -0.00016095      -0.25223088
O        1.18247295       0.00000361      16.81424201       0.00414385      -0.00000848       0.02810447
O        1.97049401       3.94093312      11.91388344      -0.12563104      -0.00003445       0.17991680
O        3.15285639       1.97047936      16.81516611       0.02175976      -0.00008330       0.00920763
O        1.97043419       1.97038596      10.03054080       0.02108253       0.00038772      -0.05163855
O        3.15282654       3.94090180      14.86499994      -0.06991164       0.00007585       0.09151276
10
Lattice="3.940949890606662 0.0 0.0 0.0 3.940949890606662 0.0 0.0 0.0 26.940967945119528" Properties=species:S:1:pos:R:3:forces:R:3 tau=tau35 tau_p=3 tau_q=5 stage=B constraint=xy_fixed_z_free force_label=raw_dft energy=-15499.195696883779 free_energy=-15499.195696883779 stress="0.010343045535221824 -0.0 0.0021723609175619027 -0.0 0.009536903149076705 1.8363152303989035e-06 0.0021723609175619027 1.8363152303989035e-06 -0.0034201371166179572" pbc="T T T"
Sr       0.00003612       0.00009431      10.40035730      -0.00144805      -0.00007045       0.01696311
Sr       1.18218697       1.97046093      15.24694558      -0.24423217      -0.00013215       0.03990686
Ti       1.97047269       1.97057450      11.83844094       0.16761150      -0.00007945      -0.06540089
Ti       3.15248573       3.94088573      16.68338082      -0.00176481       0.00013935       0.00908525
O        0.00000902       1.97050521      12.04597838       0.22359522      -0.00017046      -0.21404845
O        1.18247295       0.00000361      16.80949989       0.00378723      -0.00001183       0.15285157
O        1.97049401       3.94093312      11.93621234      -0.12779874      -0.00003908       0.01020471
O        3.15285639       1.97047936      16.80878681       0.02132139      -0.00010284       0.13982199
O        1.97043419       1.97038596      10.02583543       0.02133296       0.00038489      -0.04405945
O        3.15282654       3.94090180      14.87988248      -0.06240427       0.00008228      -0.04532469
10
Lattice="3.940949890606662 0.0 0.0 0.0 3.940949890606662 0.0 0.0 0.0 26.940967945119528" Properties=species:S:1:pos:R:3:forces:R:3 tau=tau35 tau_p=3 tau_q=5 stage=B constraint=xy_fixed_z_free force_label=raw_dft energy=-15499.198116520032 free_energy=-15499.198116520032 stress="0.010221848730015496 -0.0 0.002142061716260321 -0.0 0.009743488612496581 1.8363152303989035e-06 0.002142061716260321 1.8363152303989035e-06 -0.0033806563391643816" pbc="T T T"
Sr       0.00003612       0.00009431      10.39523446      -0.00120842      -0.00006968       0.04685707
Sr       1.18218697       1.97046093      15.25060225      -0.24066220      -0.00012881       0.02515105
Ti       1.97047269       1.97057450      11.83703831       0.16709137      -0.00007765      -0.07726962
Ti       3.15248573       3.94088573      16.68583194      -0.00153495       0.00014090       0.00489409
O        0.00000902       1.97050521      12.03632644       0.21882068      -0.00017124      -0.18551126
O        1.18247295       0.00000361      16.81155582       0.00366254      -0.00001183       0.16102176
O        1.97049401       3.94093312      11.94214856      -0.12886318      -0.00004345      -0.03123093
O        3.15285639       1.97047936      16.81015036       0.02096040      -0.00010233       0.15072578
O        1.97043419       1.97038596      10.02369741       0.02151782       0.00038232      -0.04585305
O        3.15282654       3.94090180      14.88273441      -0.05978406       0.00008150      -0.04878488
10
Lattice="3.940949890606662 0.0 0.0 0.0 3.940949890606662 0.0 0.0 0.0 26.940967945119528" Properties=species:S:1:pos:R:3:forces:R:3 tau=tau35 tau_p=3 tau_q=5 stage=B constraint=xy_fixed_z_free force_label=raw_dft energy=-15499.200932081922 free_energy=-15499.200932081922 stress="0.010084125087735579 0.0 0.00210992619972834 0.0 0.009928956450766871 1.8363152303989035e-06 0.00210992619972834 1.8363152303989035e-06 -0.0033044492571028265" pbc="T T T"
Sr       0.00003612       0.00009431      10.39159046      -0.00108166      -0.00007225       0.05734717
Sr       1.18218697       1.97046093      15.25400662      -0.23676646      -0.00013087       0.01834791
Ti       1.97047269       1.97057450      11.83464368       0.16636220      -0.00007559      -0.08437512
Ti       3.15248573       3.94088573      16.68805439      -0.00128941       0.00014038       0.01182707
O        0.00000902       1.97050521      12.02570932       0.21414821      -0.00017072      -0.15125903
O        1.18247295       0.00000361      16.81552050       0.00355892      -0.00001106       0.15060854
O        1.97049401       3.94093312      11.94659831      -0.12991193      -0.00003934      -0.06201527
O        3.15285639       1.97047936      16.81339857       0.02051972      -0.00010284       0.14326213
O        1.97043419       1.97038596      10.02122536       0.02172839       0.00038258      -0.04978941
O        3.15282654       3.94090180      14.88457274      -0.05726772       0.00007970      -0.03395399
10
Lattice="3.940949890606662 0.0 0.0 0.0 3.940949890606662 0.0 0.0 0.0 26.940967945119528" Properties=species:S:1:pos:R:3:forces:R:3 tau=tau35 tau_p=3 tau_q=5 stage=B constraint=xy_fixed_z_free force_label=raw_dft energy=-15499.204863582663 free_energy=-15499.204863582663 stress="0.0098802940971613 0.0 0.0020621820037379683 0.0 0.010171350061179526 1.8363152303989035e-06 0.0020621820037379683 1.8363152303989035e-06 -0.003167643772438108" pbc="T T T"
Sr       0.00003612       0.00009431      10.38760537      -0.00099656      -0.00007430       0.05434155
Sr       1.18218697       1.97046093      15.25877567      -0.23089329      -0.00013164       0.01489029
Ti       1.97047269       1.97057450      11.83009262       0.16504940      -0.00007765      -0.08794510
Ti       3.15248573       3.94088573      16.69137725      -0.00099939       0.00014013       0.02974612
O        0.00000902       1.97050521      12.00978363       0.20757390      -0.00016738      -0.09815058
O        1.18247295       0.00000361      16.82281671       0.00342651      -0.00001157       0.12213948
O        1.97049401       3.94093312      11.95127465      -0.13117023      -0.00003728      -0.09596745
O        3.15285639       1.97047936      16.81966989       0.01983272      -0.00010053       0.11907370
O        1.97043419       1.97038596      10.01714820       0.02201507       0.00038129      -0.05696202
O        3.15282654       3.94090180      14.88677597      -0.05383787       0.00007919      -0.00116625
10
Lattice="3.940949890606662 0.0 0.0 0.0 3.940949890606662 0.0 0.0 0.0 26.940967945119528" Properties=species:S:1:pos:R:3:forces:R:3 tau=tau35 tau_p=3 tau_q=5 stage=B constraint=xy_fixed_z_free force_label=raw_dft energy=-15499.209376182505 free_energy=-15499.209376182505 stress="0.009574547611299881 0.0 0.001990565709752411 0.0 0.010470669443734548 1.8363152303989035e-06 0.001990565709752411 1.8363152303989035e-06 -0.0029583038361726335" pbc="T T T"
Sr       0.00003612       0.00009431      10.38282228      -0.00097573      -0.00007996       0.02879584
Sr       1.18218697       1.97046093      15.26586669      -0.22202736      -0.00013215       0.01662912
Ti       1.97047269       1.97057450      11.82189934       0.16268861      -0.00008587      -0.08556271
Ti       3.15248573       3.94088573      16.69698987      -0.00060061       0.00013653       0.05999978
O        0.00000902       1.97050521      11.98589510       0.19813075      -0.00015992      -0.01789771
O        1.18247295       0.00000361      16.83514646       0.00325039      -0.00001106       0.07091951
O        1.97049401       3.94093312      11.95570932      -0.13240101      -0.00002931      -0.13391359
O        3.15285639       1.97047936      16.83053457       0.01878448      -0.00009436       0.07408685
O        1.97043419       1.97038596      10.01016690       0.02230895       0.00038052      -0.06587449
O        3.15282654       3.94090180      14.89028943      -0.04915872       0.00007533       0.05281714
10
Lattice="3.940949890606662 0.0 0.0 0.0 3.940949890606662 0.0 0.0 0.0 26.940967945119528" Properties=species:S:1:pos:R:3:forces:R:3 tau=tau35 tau_p=3 tau_q=5 stage=B constraint=xy_fixed_z_free force_label=raw_dft energy=-15499.212689304548 free_energy=-15499.212689304548 stress="0.0092091208804505 0.0 0.0019033407363084633 0.0 0.010736935152142388 1.8363152303989035e-06 0.0019033407363084633 1.8363152303989035e-06 -0.0027067286496079835" pbc="T T T"
Sr       0.00003612       0.00009431      10.37752777      -0.00103873      -0.00008690      -0.02751800
Sr       1.18218697       1.97046093      15.27511973      -0.21079883      -0.00013421       0.02668162
Ti       1.97047269       1.97057450      11.80948570       0.15910758      -0.00009205      -0.07313477
Ti       3.15248573       3.94088573      16.70575785      -0.00044891       0.00013524       0.09628087
O        0.00000902       1.97050521      11.95643963       0.18686855      -0.00015118       0.07903417
O        1.18247295       0.00000361      16.85211431       0.00304007      -0.00001080       0.00510210
O        1.97049401       3.94093312      11.95714446      -0.13254140      -0.00002391      -0.16524531
O        3.15285639       1.97047936      16.84582381       0.01747605      -0.00008947       0.01568604
O        1.97043419       1.97038596       9.99971563       0.02247607       0.00037898      -0.07341579
O        3.15282654       3.94090180      14.89619108      -0.04414018       0.00007430       0.11652857
10
Lattice="3.940949890606662 0.0 0.0 0.0 3.940949890606662 0.0 0.0 0.0 26.940967945119528" Properties=species:S:1:pos:R:3:forces:R:3 tau=tau35 tau_p=3 tau_q=5 stage=B constraint=xy_fixed_z_free force_label=raw_dft energy=-15499.214606210484 free_energy=-15499.214606210484 stress="0.009087924075244173 -0.0 0.0018675325893156847 -0.0 0.010761725407752772 1.8363152303989035e-06 0.0018675325893156847 1.8363152303989035e-06 -0.002602976839090446" pbc="T T T"
Sr       0.00003612       0.00009431      10.37479908      -0.00113566      -0.00008870      -0.06381041
Sr       1.18218697       1.97046093      15.27992169      -0.20559261      -0.00013344       0.03539741
Ti       1.97047269       1.97057450      11.80200601       0.15664189      -0.00009924      -0.06035459
Ti       3.15248573       3.94088573      16.71184553      -0.00047077       0.00012598       0.10326322
O        0.00000902       1.97050521      11.94459029       0.18219917      -0.00014450       0.11102743
O        1.18247295       0.00000361      16.86053090       0.00296397      -0.00001157      -0.01704899
O        1.97049401       3.94093312      11.95359553      -0.13098716      -0.00001903      -0.16572045
O        3.15285639       1.97047936      16.85371330       0.01688238      -0.00008228      -0.00392170
O        1.97043419       1.97038596       9.99322328       0.02229609       0.00037924      -0.07135788
O        3.15282654       3.94090180      14.90109435      -0.04279704       0.00007328       0.13252597
10
Lattice="3.940949890606662 0.0 0.0 0.0 3.940949890606662 0.0 0.0 0.0 26.940967945119528" Properties=species:S:1:pos:R:3:forces:R:3 tau=tau35 tau_p=3 tau_q=5 stage=B constraint=xy_fixed_z_free force_label=raw_dft energy=-15499.2178815087 free_energy=-15499.2178815087 stress="0.008983254107111436 -0.0 0.0018271336542469087 -0.0 0.0107176538422232 1.8363152303989035e-06 0.0018271336542469087 1.8363152303989035e-06 -0.00249463424049691" pbc="T T T"
Sr       0.00003612       0.00009431      10.37024680      -0.00122410      -0.00009230      -0.10969843
Sr       1.18218697       1.97046093      15.28669590      -0.19913143      -0.00013087       0.04800841
Ti       1.97047269       1.97057450      11.79131875       0.15296341      -0.00011159      -0.04106900
Ti       3.15248573       3.94088573      16.72141449      -0.00066129       0.00012187       0.10152824
O        0.00000902       1.97050521      11.93155601       0.17675332      -0.00013833       0.13613683
O        1.18247295       0.00000361      16.87127615       0.00285752      -0.00000977      -0.03311607
O        1.97049401       3.94093312      11.94564163      -0.12762339      -0.00001311      -0.15704607
O        3.15285639       1.97047936      16.86404284       0.01617687      -0.00008048      -0.01773727
O        1.97043419       1.97038596       9.98360709       0.02185181       0.00038155      -0.06395542
O        3.15282654       3.94090180      14.90952029      -0.04196297       0.00007353       0.13694878
10
Lattice="3.940949890606662 0.0 0.0 0.0 3.940949890606662 0.0 0.0 0.0 26.940967945119528" Properties=species:S:1:pos:R:3:forces:R:3 tau=tau35 tau_p=3 tau_q=5 stage=B constraint=xy_fixed_z_free force_label=raw_dft energy=-15499.22385318295 free_energy=-15499.22385318295 stress="0.00888960203036109 0.0 0.001766535251643745 0.0 0.010601965982708069 1.8363152303989035e-06 0.001766535251643745 1.8363152303989035e-06 -0.0023284477121458098" pbc="T T T"
Sr       0.00003612       0.00009431      10.36035612      -0.00129558      -0.00010027      -0.17657874
Sr       1.18218697       1.97046093      15.29916779      -0.18866369      -0.00012933       0.06840009
Ti       1.97047269       1.97057450      11.77245845       0.14646932      -0.00012316      -0.01031552
Ti       3.15248573       3.94088573      16.73943690      -0.00148224       0.00011956       0.08837961
O        0.00000902       1.97050521      11.91200460       0.16826739      -0.00013138       0.15900833
O        1.18247295       0.00000361      16.88912727       0.00272357      -0.00000823      -0.04422786
O        1.97049401       3.94093312      11.92898641      -0.12072512      -0.00000334      -0.13599696
O        3.15285639       1.97047936      16.88149199       0.01509572      -0.00007765      -0.02649933
O        1.97043419       1.97038596       9.96609030       0.02090898       0.00038155      -0.04809068
O        3.15282654       3.94090180      14.92620015      -0.04129834       0.00007251       0.12592132
10
Lattice="3.940949890606662 0.0 0.0 0.0 3.940949890606662 0.0 0.0 0.0 26.940967945119528" Properties=species:S:1:pos:R:3:forces:R:3 tau=tau35 tau_p=3 tau_q=5 stage=B constraint=xy_fixed_z_free force_label=raw_dft energy=-15499.232271976945 free_energy=-15499.232271976945 stress="0.008833594415833925 -0.0 0.001681146593430196 -0.0 0.010412825513976981 1.8363152303989035e-06 0.001681146593430196 1.8363152303989035e-06 -0.0021108443573435395" pbc="T T T"
Sr       0.00003612       0.00009431      10.34159785      -0.00128452      -0.00010104      -0.25440372
Sr       1.18218697       1.97046093      15.31983852      -0.17392124      -0.00012856       0.09457417
Ti       1.97047269       1.97057450      11.74322557       0.13633249      -0.00013550       0.03669967
Ti       3.15248573       3.94088573      16.76876402      -0.00187871       0.00010824       0.05374685
O        0.00000902       1.97050521      11.88446180       0.15612201      -0.00012393       0.17164788
O        1.18247295       0.00000361      16.91603865       0.00242558      -0.00000771      -0.04377560
O        1.97049401       3.94093312      11.90096029      -0.10978996       0.00000309      -0.10392245
O        3.15285639       1.97047936      16.90809461       0.01356925      -0.00007456      -0.02413135
O        1.97043419       1.97038596       9.93817051       0.01915318       0.00038464      -0.02323275
O        3.15282654       3.94090180      14.95416815      -0.04072833       0.00007533       0.09279754
10
Lattice="3.940949890606662 0.0 0.0 0.0 3.940949890606662 0.0 0.0 0.0 26.940967945119528" Properties=species:S:1:pos:R:3:forces:R:3 tau=tau35 tau_p=3 tau_q=5 stage=B constraint=xy_fixed_z_free force_label=raw_dft energy=-15499.241935419643 free_energy=-15499.241935419643 stress="0.008898783606513087 0.0 0.0015672950491454642 0.0 0.010186958740637917 1.8363152303989035e-06 0.0015672950491454642 1.8363152303989035e-06 -0.0017959162953301274" pbc="T T T"
Sr       0.00003612       0.00009431      10.30873096      -0.00123387      -0.00010387      -0.32315347
Sr       1.18218697       1.97046093      15.35220722      -0.15476241      -0.00012496       0.12370272
Ti       1.97047269       1.97057450      11.70124255       0.12129179      -0.00015658       0.08663435
Ti       3.15248573       3.94088573      16.81275471      -0.00158431       0.00010670      -0.00828358
O        0.00000902       1.97050521      11.84767863       0.14027116      -0.00011801       0.16288350
O        1.18247295       0.00000361      16.95457641       0.00212707      -0.00000668      -0.02386678
O        1.97049401       3.94093312      11.85759266      -0.09472253       0.00001234      -0.05865021
O        3.15285639       1.97047936      16.94659922       0.01183145      -0.00007508      -0.00323316
O        1.97043419       1.97038596       9.89667900       0.01664841       0.00038695       0.01374409
O        3.15282654       3.94090180      14.99725858      -0.03986701       0.00007893       0.03022255
10
Lattice="3.940949890606662 0.0 0.0 0.0 3.940949890606662 0.0 0.0 0.0 26.940967945119528" Properties=species:S:1:pos:R:3:forces:R:3 tau=tau35 tau_p=3 tau_q=5 stage=B constraint=xy_fixed_z_free force_label=raw_dft energy=-15499.251591515262 free_energy=-15499.251591515262 stress="0.009202693777144104 -0.0 0.0014359985101719424 -0.0 0.010043726152666802 1.8363152303989035e-06 0.0014359985101719424 1.8363152303989035e-06 -0.0014231443035591501" pbc="T T T"
Sr       0.00003612       0.00009431      10.25908645      -0.00080758      -0.00009487      -0.33561458
Sr       1.18218697       1.97046093      15.39618645      -0.13424707      -0.00012367       0.13809935
Ti       1.97047269       1.97057450      11.65068763       0.10599090      -0.00018563       0.10444695
Ti       3.15248573       3.94088573      16.86778660      -0.00281356       0.00010696      -0.06380347
O        0.00000902       1.97050521      11.80589185       0.12279820      -0.00011596       0.11782646
O        1.18247295       0.00000361      17.00202276       0.00170773      -0.00000103       0.01723642
O        1.97049401       3.94093312      11.80151216      -0.07803041       0.00002160      -0.01207416
O        3.15285639       1.97047936      16.99456561       0.00982856      -0.00008176       0.03430237
O        1.97043419       1.97038596       9.84478767       0.01384950       0.00039235       0.05227027
O        3.15282654       3.94090180      15.05279280      -0.03827653       0.00008176      -0.05268936
10
Lattice="3.940949890606662 0.0 0.0 0.0 3.940949890606662 0.0 0.0 0.0 26.940967945119528" Properties=species:S:1:pos:R:3:forces:R:3 tau=tau35 tau_p=3 tau_q=5 stage=B constraint=xy_fixed_z_free force_label=raw_dft energy=-15499.258962943093 free_energy=-15499.258962943093 stress="0.009704925992658204 0.0 0.0013019474983528225 0.0 0.010150232436029938 1.8363152303989035e-06 0.0013019474983528225 1.8363152303989035e-06 -0.0010228275833321892" pbc="T T T"
Sr       0.00003612       0.00009431      10.19739789      -0.00043940      -0.00010027      -0.27158254
Sr       1.18218697       1.97046093      15.44735401      -0.11524816      -0.00011827       0.13914707
Ti       1.97047269       1.97057450      11.59840074       0.09176550      -0.00020517       0.11888472
Ti       3.15248573       3.94088573      16.92555206      -0.00330464       0.00012290      -0.10320819
O        0.00000902       1.97050521      11.76041415       0.10578573      -0.00011416       0.05575771
O        1.18247295       0.00000361      17.05386426       0.00135214      -0.00001157       0.05246182
O        1.97049401       3.94093312      11.74364702      -0.06352039       0.00002571       0.00498974
O        3.15285639       1.97047936      17.04707400       0.00803444      -0.00007045       0.06732691
O        1.97043419       1.97038596       9.79013554       0.01139744       0.00038541       0.05908318
O        3.15282654       3.94090180      15.11148027      -0.03582318       0.00008562      -0.12286068
10
Lattice="3.940949890606662 0.0 0.0 0.0 3.940949890606662 0.0 0.0 0.0 26.940967945119528" Properties=species:S:1:pos:R:3:forces:R:3 tau=tau35 tau_p=3 tau_q=5 stage=B constraint=xy_fixed_z_free force_label=raw_dft energy=-15499.264712436392 free_energy=-15499.264712436392 stress="0.010293465024001053 0.0 0.0012037046335264812 0.0 0.010496377856960133 1.8363152303989035e-06 0.0012037046335264812 1.8363152303989035e-06 -0.000560994302886865" pbc="T T T"
Sr       0.00003612       0.00009431      10.14120240       0.00006222      -0.00008665      -0.15675142
Sr       1.18218697       1.97046093      15.49197712      -0.10183060      -0.00011416       0.11916575
Ti       1.97047269       1.97057450      11.56029746       0.08180068      -0.00017946       0.08830994
Ti       3.15248573       3.94088573      16.96857984      -0.00330001       0.00010207      -0.09232986
O        0.00000902       1.97050521      11.72375850       0.09373419      -0.00013987       0.00411479
O        1.18247295       0.00000361      17.09619568       0.00113746      -0.00000051       0.05872065
O        1.97049401       3.94093312      11.69994969      -0.05437575       0.00000591      -0.00281253
O        3.15285639       1.97047936      17.09016307       0.00683682      -0.00006068       0.07327181
O        1.97043419       1.97038596       9.74828300       0.00977353       0.00038849       0.05341313
O        3.15282654       3.94090180      15.15491320      -0.03383829       0.00008459      -0.14510252
10
Lattice="3.940949890606662 0.0 0.0 0.0 3.940949890606662 0.0 0.0 0.0 26.940967945119528" Properties=species:S:1:pos:R:3:forces:R:3 tau=tau35 tau_p=3 tau_q=5 stage=B constraint=xy_fixed_z_free force_label=raw_dft energy=-15499.268336312438 free_energy=-15499.268336312438 stress="0.010896694577187092 -0.0 0.0011146433448521345 -0.0 0.010961883767866254 1.8363152303989035e-06 0.0011146433448521345 1.8363152303989035e-06 9.089760390474572e-05" pbc="T T T"
Sr       0.00003612       0.00009431      10.08447384       0.00015452      -0.00007148      -0.01502450
Sr       1.18218697       1.97046093      15.53754186      -0.09006214      -0.00011724       0.06929123
Ti       1.97047269       1.97057450      11.52680580       0.07374027      -0.00014552       0.03371333
Ti       3.15248573       3.94088573      17.00632451      -0.00297502       0.00010516      -0.07452831
O        0.00000902       1.97050521      11.68715976       0.08319524      -0.00015195      -0.02950855
O        1.18247295       0.00000361      17.13801083       0.00096236      -0.00000643       0.03756176
O        1.97049401       3.94093312      11.66037206      -0.04745305      -0.00000823      -0.01445114
O        3.15285639       1.97047936      17.13297090       0.00581069      -0.00007508       0.05251581
O        1.97043419       1.97038596       9.71056238       0.00865999       0.00038772       0.03005800
O        3.15282654       3.94090180      15.19109802      -0.03203260       0.00008305      -0.08962763
10
Lattice="3.940949890606662 0.0 0.0 0.0 3.940949890606662 0.0 0.0 0.0 26.940967945119528" Properties=species:S:1:pos:R:3:forces:R:3 tau=tau35 tau_p=3 tau_q=5 stage=B constraint=xy_fixed_z_free force_label=raw_dft energy=-15499.269173470662 free_energy=-15499.269173470662 stress="0.010940766142716668 -0.0 0.0011164796600825332 -0.0 0.011051863214155801 1.8363152303989035e-06 0.0011164796600825332 1.8363152303989035e-06 0.00024606624087345305" pbc="T T T"
Sr       0.00003612       0.00009431      10.08124406       0.00021134      -0.00007199       0.01746653
Sr       1.18218697       1.97046093      15.54073727      -0.08985054      -0.00011904       0.03565632
Ti       1.97047269       1.97057450      11.52942166       0.07414984      -0.00014090       0.00298402
Ti       3.15248573       3.94088573      17.00275566      -0.00295471       0.00010901      -0.03966801
O        0.00000902       1.97050521      11.68648332       0.08308957      -0.00015375      -0.01922208
O        1.18247295       0.00000361      17.13930179       0.00095388      -0.00000694       0.01179288
O        1.97049401       3.94093312      11.66131599      -0.04770451      -0.00001003      -0.01219089
O        3.15285639       1.97047936      17.13475332       0.00573690      -0.00007251       0.02489034
O        1.97043419       1.97038596       9.71252226       0.00871913       0.00038489       0.01496022
O        3.15282654       3.94090180      15.18678463      -0.03235091       0.00008125      -0.03666933
10
Lattice="3.940949890606662 0.0 0.0 0.0 3.940949890606662 0.0 0.0 0.0 26.940967945119528" Properties=species:S:1:pos:R:3:forces:R:3 tau=tau35 tau_p=3 tau_q=5 stage=B constraint=xy_fixed_z_free force_label=raw_dft energy=-15499.269424495678 free_energy=-15499.269424495678 stress="0.010865477218270312 0.0 0.001132088339540924 0.0 0.011027072958545416 1.8363152303989035e-06 0.001132088339540924 1.8363152303989035e-06 0.00022403045810866622" pbc="T T T"
Sr       0.00003612       0.00009431      10.08862033       0.00024194      -0.00007148       0.01679419
Sr       1.18218697       1.97046093      15.53566832      -0.09154516      -0.00012033       0.01860090
Ti       1.97047269       1.97057450      11.53689715       0.07581746      -0.00013910      -0.00350878
Ti       3.15248573       3.94088573      16.99346691      -0.00312106       0.00010696      -0.01077292
O        0.00000902       1.97050521      11.69232997       0.08473559      -0.00015349      -0.00760301
O        1.18247295       0.00000361      17.13316118       0.00098987      -0.00000771      -0.00555950
O        1.97049401       3.94093312      11.66839010      -0.04898389      -0.00001106      -0.00800719
O        3.15285639       1.97047936      17.12899645       0.00583203      -0.00007019       0.00572816
O        1.97043419       1.97038596       9.72049440       0.00896389       0.00038669       0.00309124
O        3.15282654       3.94090180      15.17729515      -0.03293043       0.00007996      -0.00876335
