10
Lattice="3.940949890606662 0.0 0.0 0.0 3.940949890606662 0.0 0.0 0.0 26.940967945119528" Properties=species:S:1:pos:R:3:forces:R:3 tau=tau67 tau_p=6 tau_q=7 stage=A constraint=rigid_scf force_label=raw_dft energy=-15497.077952974927 free_energy=-15497.077952974927 stress="0.018276845488160286 0.0010788351978593556 -0.006839356075620716 0.0010788351978593556 0.011238249210041289 -0.006143392603299531 -0.006839356075620716 -0.006143392603299531 -0.021776862317300597" pbc="T T T"
Sr       0.00003626       0.00009419      10.75260867      -0.00551065       0.00742252       0.60308670
Sr       2.36447180       2.75865074      14.64522241       0.90576493       1.51214496       5.07414331
Ti       1.97047258       1.97057465      12.38212169      -0.78452816      -1.54484348      -5.05449288
Ti       0.39382070       0.78812574      16.28444791       0.04073939      -0.01208881      -0.58282332
O        0.00000906       1.97050529      12.45001441      -0.69126782       0.92385342      -1.03749206
O        2.36475792       0.78819352      16.39256827      -0.01039137      -0.12439203      -0.17423106
O        1.97049386       3.94093294      12.44909065       0.35462763      -0.43640105      -0.57378204
O        0.39419154       2.75866926      16.37955485      -0.04058204      -0.01791030      -0.07389273
O        1.97043435       1.97038588      10.49176941      -0.09983491      -0.09643154       0.43089066
O        0.39416159       0.78814190      14.44792112       0.33098300      -0.21135316       1.38859317
