10
Lattice="3.940949890606662 0.0 0.0 0.0 3.940949890606662 0.0 0.0 0.0 26.940967945119528" Properties=species:S:1:pos:R:3:forces:R:3 tau=tau50 tau_p=5 tau_q=0 stage=B constraint=xy_fixed_z_free force_label=raw_dft energy=-15499.446347063127 free_energy=-15499.446347063127 stress="0.011409944684083587 -0.0 -9.181576151994517e-07 -0.0 0.010489950753653736 9.181576151994517e-07 -9.181576151994517e-07 9.181576151994517e-07 0.0004296977639133434" pbc="T T T"
Sr       0.00003626       0.00009419      10.38916560      -0.00013164      -0.00006556       0.00394330
Sr       1.97037682       3.94093570      15.21136627      -0.00015144      -0.00009487      -0.01707470
Ti       1.97047258       1.97057465      11.86128142       0.00008793      -0.00032730       0.00360109
Ti       3.94067560       1.97041071      16.68714639       0.00048440       0.00007868      -0.00483265
O        0.00000906       1.97050529      11.89172723      -0.00006633      -0.00007019       0.03865525
O        1.97066293       1.97047849      16.81120670      -0.00044917      -0.00000900       0.01247088
O        1.97049386       3.94093294      12.09134225      -0.00005682       0.00009050      -0.02809882
O        0.00009655       0.00000434      16.82691927       0.00024965      -0.00004705      -0.00352678
O        1.97043435       1.97038588      10.03782519       0.00019180       0.00034838       0.00912973
O        0.00006660       1.97042687      14.86733869      -0.00015838       0.00009667      -0.01426679
10
Lattice="3.940949890606662 0.0 0.0 0.0 3.940949890606662 0.0 0.0 0.0 26.940967945119528" Properties=species:S:1:pos:R:3:forces:R:3 tau=tau50 tau_p=5 tau_q=0 stage=B constraint=xy_fixed_z_free force_label=raw_dft energy=-15499.446406656056 free_energy=-15499.446406656056 stress="0.011431980466848374 -0.0 -9.181576151994517e-07 -0.0 0.010478932862271343 9.181576151994517e-07 -9.181576151994517e-07 9.181576151994517e-07 0.0004278614486829445" pbc="T T T"
Sr       0.00003612       0.00009431      10.38924676      -0.00013318      -0.00006453       0.00615471
Sr       1.97037695       3.94093589      15.21101483      -0.00015529      -0.00009359      -0.01492191
Ti       1.97047269       1.97057450      11.86135561       0.00008845      -0.00033939       0.00563612
Ti       3.94067571       1.97041077      16.68704687       0.00048697       0.00009359      -0.00549059
O        0.00000902       1.97050521      11.89252308      -0.00006402      -0.00007456       0.03420570
O        1.97066294       1.97047857      16.81146348      -0.00044840      -0.00000874       0.00931742
O        1.97049401       3.94093312      12.09076401      -0.00005734       0.00008922      -0.02545881
O        0.00009646       0.00000441      16.82684681       0.00025223      -0.00004782      -0.00514118
O        1.97043419       1.97038596      10.03801321       0.00018975       0.00035456       0.00637968
O        0.00006661       1.97042684      14.86704531      -0.00015889       0.00009127      -0.01068113
10
Lattice="3.940949890606662 0.0 0.0 0.0 3.940949890606662 0.0 0.0 0.0 26.940967945119528" Properties=species:S:1:pos:R:3:forces:R:3 tau=tau50 tau_p=5 tau_q=0 stage=B constraint=xy_fixed_z_free force_label=raw_dft energy=-15499.44646393602 free_energy=-15499.44646393602 stress="0.011475133874762749 -0.0 -9.181576151994517e-07 -0.0 0.010480769177501742 9.181576151994517e-07 -9.181576151994517e-07 9.181576151994517e-07 0.0004462246009869335" pbc="T T T"
Sr       0.00003612       0.00009431      10.38939199      -0.00013524      -0.00006299       0.00666121
Sr       1.97037695       3.94093589      15.21063220      -0.00015427      -0.00009410      -0.01205590
Ti       1.97047269       1.97057450      11.86148856       0.00008845      -0.00033270       0.00477402
Ti       3.94067571       1.97041077      16.68691197       0.00049417       0.00008896      -0.00515995
O        0.00000902       1.97050521      11.89339824      -0.00006659      -0.00007379       0.03004848
O        1.97066294       1.97047857      16.81170975      -0.00044403      -0.00000848       0.00633057
O        1.97049401       3.94093312      12.09011538      -0.00005811       0.00008587      -0.02202381
O        0.00009646       0.00000441      16.82672454       0.00024734      -0.00004602      -0.00669772
O        1.97043419       1.97038596      10.03818423       0.00018898       0.00035044       0.00552453
O        0.00006661       1.97042684      14.86676311      -0.00016069       0.00009307      -0.00740143
10
Lattice="3.940949890606662 0.0 0.0 0.0 3.940949890606662 0.0 0.0 0.0 26.940967945119528" Properties=species:S:1:pos:R:3:forces:R:3 tau=tau50 tau_p=5 tau_q=0 stage=B constraint=xy_fixed_z_free force_label=raw_dft energy=-15499.446534005334 free_energy=-15499.446534005334 stress="0.011516450967446723 -0.0 -9.181576151994517e-07 -0.0 0.010461487867582553 9.181576151994517e-07 -9.181576151994517e-07 9.181576151994517e-07 0.00044806091621733243" pbc="T T T"
Sr       0.00003612       0.00009431      10.38964983      -0.00013575      -0.00006325       0.00786732
Sr       1.97037695       3.94093589      15.21009388      -0.00015504      -0.00009462      -0.00848670
Ti       1.97047269       1.97057450      11.86167946       0.00008639      -0.00032884       0.00406877
Ti       3.94067571       1.97041077      16.68669939       0.00049519       0.00008845      -0.00413382
O        0.00000902       1.97050521      11.89471096      -0.00006608      -0.00007508       0.02390123
O        1.97066294       1.97047857      16.81201777      -0.00044146      -0.00000951       0.00225537
O        1.97049401       3.94093312      12.08915464      -0.00005811       0.00008562      -0.01694768
O        0.00009646       0.00000441      16.82646894       0.00024760      -0.00004525      -0.00839902
O        1.97043419       1.97038596      10.03843979       0.00018872       0.00034993       0.00451203
O        0.00006661       1.97042684      14.86640530      -0.00016172       0.00009282      -0.00463724
