10
Lattice="3.940949890606662 0.0 0.0 0.0 3.940949890606662 0.0 0.0 0.0 26.940967945119528" Properties=species:S:1:pos:R:3:forces:R:3 tau=tau60 tau_p=6 tau_q=0 stage=A constraint=rigid_scf force_label=raw_dft energy=-15497.561349739664 free_energy=-15497.561349739664 stress="0.020067252837799216 0.0 -0.01321504255556571 0.0 0.004888271143321881 9.181576151994517e-07 -0.01321504255556571 9.181576151994517e-07 -0.0324825801105262" pbc="T T T"
Sr       0.00003626       0.00009419      10.75260867      -0.00482725       0.00003934       0.28294759
Sr       2.36447180       3.94093570      14.64522241       0.65713309       0.00013164       4.61787277
Ti       1.97047258       1.97057465      12.38212169      -0.33990447      -0.00063840      -2.30503744
Ti       0.39382070       1.97041071      16.28444791       0.15026915      -0.00003780       0.31301201
O        0.00000906       1.97050529      12.45001441      -1.55813377       0.00004962      -3.64379928
O        2.36475792       1.97047849      16.39256827      -0.01830728       0.00000977      -0.29441625
O        1.97049386       3.94093294      12.44909065      -0.21859905       0.00021597      -1.49233332
O        0.39419154       0.00000434      16.37955485       0.04671463       0.00000926      -0.06431949
O        1.97043435       1.97038588      10.49176941      -0.20193547       0.00021777       0.27951080
O        0.39416159       1.97042687      14.44792112       1.48759041       0.00000257       2.30656261
