Sr Ti O
 1.0000000000000000
     3.9409498906066620    0.0000000000000000    0.0000000000000000
     0.0000000000000000    3.9409498906066620    0.0000000000000000
     0.0000000000000000    0.0000000000000000   26.9409679451195281
 Sr  Ti  O
   2   2   6
Cartesian
  0.0000361212000000  0.0000943054000000 10.0978362624999995
  1.9703769524999999  1.1822709513000000 15.5321804608999994
  1.9704726885999999  1.9705745045000000 11.5431048214000000
  3.9406757140000002  3.1526957466000001 16.9849561997000009
  0.0000090208000000  1.9705052130000000 11.6751083680000001
  1.9706629363999999  3.1527635419000002 17.1231612238999986
  1.9704940097000001  3.9409331233999998 11.6974322208999997
  0.0000964610000000  1.1822893808999999 17.1245930846999990
  1.9704341934000000  1.9703859550000000  9.7275617609000005
  0.0000666088000000  3.1527118179000002 15.1693855601000003
