10
Lattice="3.940949890606662 0.0 0.0 0.0 3.940949890606662 0.0 0.0 0.0 26.940967945119528" Properties=species:S:1:pos:R:3:forces:R:3 tau=tau53 tau_p=5 tau_q=3 stage=B constraint=xy_fixed_z_free force_label=raw_dft energy=-15499.208622155056 free_energy=-15499.208622155056 stress="0.010511068378803324 -0.0 -9.181576151994517e-07 -0.0 0.009519458154387915 0.0019969928130588073 -9.181576151994517e-07 0.0019969928130588073 -0.00298033961893742" pbc="T T T"
Sr       0.00003626       0.00009419      10.38439981      -0.00014115      -0.00093794       0.02684566
Sr       1.97037682       1.18227078      15.26466368      -0.00018795      -0.22276603       0.01716828
Ti       1.97047258       1.97057465      11.82314564       0.00007456       0.16294521      -0.08566273
Ti       3.94067560       3.15269568      16.69555204       0.00073379      -0.00112229       0.06154964
O        0.00000906       1.97050529      11.95706700      -0.00001003      -0.13316155      -0.13476052
O        1.97066293       3.15276346      16.83128111      -0.00064303       0.01858419       0.06456631
O        1.97049386       3.94093294      11.98707575      -0.00003060       0.19883935      -0.01685512
O        0.00009655       1.18228930      16.83170989       0.00020775       0.00374430       0.07982041
O        1.97043435       1.97038588      10.01153590       0.00015761       0.02264756      -0.06717393
O        0.00006660       3.15271183      14.88888819      -0.00016069      -0.04877280       0.05450224
10
Lattice="3.940949890606662 0.0 0.0 0.0 3.940949890606662 0.0 0.0 0.0 26.940967945119528" Properties=species:S:1:pos:R:3:forces:R:3 tau=tau53 tau_p=5 tau_q=3 stage=B constraint=xy_fixed_z_free force_label=raw_dft energy=-15499.209589247639 free_energy=-15499.209589247639 stress="0.010429352351050572 -0.0 -9.181576151994517e-07 -0.0 0.009506603947775123 0.0019951564978284084 -9.181576151994517e-07 0.0019951564978284084 -0.0029959482983958107" pbc="T T T"
Sr       0.00003612       0.00009431      10.38495235      -0.00014321      -0.00101533       0.01144398
Sr       1.97037695       1.18227095      15.26501730      -0.00018255      -0.22217185       0.02242259
Ti       1.97047269       1.97057450      11.82138251       0.00007636       0.16227286      -0.07933087
Ti       3.94067571       3.15269575      16.69681890       0.00074228      -0.00117345       0.06352836
O        0.00000902       1.97050521      11.95429345      -0.00002237      -0.13226886      -0.12355411
O        1.97066294       3.15276354      16.83261030      -0.00063223       0.01851914       0.06106781
O        1.97049401       3.94093312      11.98672888      -0.00003677       0.19867763      -0.01765474
O        0.00009646       1.18228938      16.83335291       0.00020697       0.00375715       0.07479468
O        1.97043419       1.97038596      10.01015331       0.00015067       0.02253006      -0.06363840
O        0.00006661       3.15271182      14.89001006      -0.00015967      -0.04912735       0.05092070
10
Lattice="3.940949890606662 0.0 0.0 0.0 3.940949890606662 0.0 0.0 0.0 26.940967945119528" Properties=species:S:1:pos:R:3:forces:R:3 tau=tau53 tau_p=5 tau_q=3 stage=B constraint=xy_fixed_z_free force_label=raw_dft energy=-15499.210595932787 free_energy=-15499.210595932787 stress="0.010367835790832208 -0.0 -9.181576151994517e-07 -0.0 0.009513949208696719 0.00199240202498281 -9.181576151994517e-07 0.00199240202498281 -0.0029849304070134175" pbc="T T T"
Sr       0.00003612       0.00009431      10.38534807      -0.00014424      -0.00110043      -0.00619482
Sr       1.97037695       1.18227095      15.26551358      -0.00018975      -0.22148922       0.02993253
Ti       1.97047269       1.97057450      11.81943036       0.00007533       0.16156607      -0.07157154
Ti       3.94067571       3.15269575      16.69832666       0.00073379      -0.00129712       0.06250275
O        0.00000902       1.97050521      11.95124248      -0.00001851      -0.13128284      -0.11255493
O        1.97066294       3.15276354      16.83410220      -0.00063198       0.01844072       0.05811979
O        1.97049401       3.94093312      11.98631184      -0.00003162       0.19849096      -0.02009960
O        0.00009646       1.18228938      16.83518599       0.00021134       0.00376641       0.07017878
O        1.97043419       1.97038596      10.00859948       0.00015401       0.02238814      -0.06061016
O        0.00006661       3.15271182      14.89125929      -0.00015812      -0.04948294       0.05029746
10
Lattice="3.940949890606662 0.0 0.0 0.0 3.940949890606662 0.0 0.0 0.0 26.940967945119528" Properties=species:S:1:pos:R:3:forces:R:3 tau=tau53 tau_p=5 tau_q=3 stage=B constraint=xy_fixed_z_free force_label=raw_dft energy=-15499.212020312676 free_energy=-15499.212020312676 stress="0.010276020029312263 -0.0 -9.181576151994517e-07 -0.0 0.009525885257694312 0.001989647552137212 -9.181576151994517e-07 0.001989647552137212 -0.002962894624248631" pbc="T T T"
Sr       0.00003612       0.00009431      10.38546861      -0.00014552      -0.00118605      -0.02794789
Sr       1.97037695       1.18227095      15.26653026      -0.00019283      -0.22037002       0.03729951
Ti       1.97047269       1.97057450      11.81652464       0.00008330       0.16045561      -0.06209137
Ti       3.94067571       3.15269575      16.70071331       0.00073045      -0.00148635       0.06002189
O        0.00000902       1.97050521      11.94666603      -0.00002083      -0.12976718      -0.09612481
O        1.97066294       3.15276354      16.83641107      -0.00062838       0.01831294       0.05443411
O        1.97049401       3.94093312      11.98557001      -0.00003291       0.19810067      -0.02316307
O        0.00009646       1.18228938      16.83799377       0.00021263       0.00377515       0.06407240
O        1.97043419       1.97038596      10.00619360       0.00015324       0.02218014      -0.05626371
O        0.00006661       3.15271182      14.89324866      -0.00015941      -0.05001490       0.04976293
10
Lattice="3.940949890606662 0.0 0.0 0.0 3.940949890606662 0.0 0.0 0.0 26.940967945119528" Properties=species:S:1:pos:R:3:forces:R:3 tau=tau53 tau_p=5 tau_q=3 stage=B constraint=xy_fixed_z_free force_label=raw_dft energy=-15499.21399341012 free_energy=-15499.21399341012 stress="0.010151150593645138 -0.0 -9.181576151994517e-07 -0.0 0.009551593670919897 0.0019841386064460152 -9.181576151994517e-07 0.0019841386064460152 -0.0029224956891798545" pbc="T T T"
Sr       0.00003612       0.00009431      10.38504465      -0.00014758      -0.00129866      -0.05683526
Sr       1.97037695       1.18227095      15.26836445      -0.00019412      -0.21858568       0.04718643
Ti       1.97047269       1.97057450      11.81213385       0.00008073       0.15881627      -0.04915435
Ti       3.94067571       3.15269575      16.70446334       0.00071991      -0.00176455       0.05611330
O        0.00000902       1.97050521      11.93980136      -0.00002108      -0.12747195      -0.07274576
O        1.97066294       3.15276354      16.84000997      -0.00062041       0.01810597       0.04971125
O        1.97049401       3.94093312      11.98429194      -0.00003240       0.19737151      -0.02853796
O        0.00009646       1.18228938      16.84232287       0.00021752       0.00376641       0.05577443
O        1.97043419       1.97038596      10.00245986       0.00015607       0.02184975      -0.05068853
O        0.00006661       3.15271182      14.89642766      -0.00015864      -0.05078906       0.04917646
10
Lattice="3.940949890606662 0.0 0.0 0.0 3.940949890606662 0.0 0.0 0.0 26.940967945119528" Properties=species:S:1:pos:R:3:forces:R:3 tau=tau53 tau_p=5 tau_q=3 stage=B constraint=xy_fixed_z_free force_label=raw_dft energy=-15499.21662556728 free_energy=-15499.21662556728 stress="0.009983127750063638 -0.0 -9.181576151994517e-07 -0.0 0.009600256024525466 0.00197587518790922 -9.181576151994517e-07 0.00197587518790922 -0.0028517975528094966" pbc="T T T"
Sr       0.00003612       0.00009431      10.38354204      -0.00014578      -0.00144265      -0.09507477
Sr       1.97037695       1.18227095      15.27157442      -0.00019463      -0.21576723       0.05988999
Ti       1.97047269       1.97057450      11.80548002       0.00008665       0.15628502      -0.03153972
Ti       3.94067571       3.15269575      16.71033921       0.00069394      -0.00209802       0.05058928
O        0.00000902       1.97050521      11.92950435      -0.00002365      -0.12401716      -0.03932297
O        1.97066294       3.15276354      16.84563482      -0.00060884       0.01776684       0.04345730
O        1.97049401       3.94093312      11.98208573      -0.00003240       0.19604867      -0.03718972
O        0.00009646       1.18228938      16.84901066       0.00022394       0.00375484       0.04434459
O        1.97043419       1.97038596       9.99664616       0.00015787       0.02134581      -0.04321356
O        0.00006661       3.15271182      14.90150257      -0.00015684      -0.05187586       0.04805957
10
Lattice="3.940949890606662 0.0 0.0 0.0 3.940949890606662 0.0 0.0 0.0 26.940967945119528" Properties=species:S:1:pos:R:3:forces:R:3 tau=tau53 tau_p=5 tau_q=3 stage=B constraint=xy_fixed_z_free force_label=raw_dft energy=-15499.219932294647 free_energy=-15499.219932294647 stress="0.00976185176480057 -0.0 -9.181576151994517e-07 -0.0 0.009689317313199814 0.0019602665084508296 -9.181576151994517e-07 0.0019602665084508296 -0.002731518905218369" pbc="T T T"
Sr       0.00003612       0.00009431      10.37994812      -0.00015015      -0.00157840      -0.14484490
Sr       1.97037695       1.18227095      15.27710544      -0.00019746      -0.21134442       0.07633374
Ti       1.97047269       1.97057450      11.79535622       0.00009693       0.15233786      -0.00840596
Ti       3.94067571       3.15269575      16.71957511       0.00067337      -0.00247752       0.04329866
O        0.00000902       1.97050521      11.91405884      -0.00002854      -0.11887907       0.00804961
O        1.97066294       3.15276354      16.85446672      -0.00059470       0.01724567       0.03516986
O        1.97049401       3.94093312      11.97826053      -0.00003317       0.19369663      -0.05126831
O        0.00009646       1.18228938      16.85938078       0.00023217       0.00372450       0.02859967
O        1.97043419       1.97038596       9.98755314       0.00015838       0.02059222      -0.03316800
O        0.00006661       3.15271182      14.90961506      -0.00015684      -0.05331774       0.04623563
10
Lattice="3.940949890606662 0.0 0.0 0.0 3.940949890606662 0.0 0.0 0.0 26.940967945119528" Properties=species:S:1:pos:R:3:forces:R:3 tau=tau53 tau_p=5 tau_q=3 stage=B constraint=xy_fixed_z_free force_label=raw_dft energy=-15499.223730187494 free_energy=-15499.223730187494 stress="0.00947722290408874 -0.0 -9.181576151994517e-07 -0.0 0.009839895162092525 0.0019336399376100454 -9.181576151994517e-07 0.0019336399376100454 -0.0025322787027200876" pbc="T T T"
Sr       0.00003612       0.00009431      10.37226391      -0.00015298      -0.00166248      -0.20718901
Sr       1.97037695       1.18227095      15.28665955      -0.00020286      -0.20430526       0.09687634
Ti       1.97047269       1.97057450      11.77983740       0.00010876       0.14643410       0.01985123
Ti       3.94067571       3.15269575      16.73422783       0.00064483      -0.00331929       0.03300268
O        0.00000902       1.97050521      11.89089056      -0.00003780      -0.11133597       0.07403132
O        1.97066294       3.15276354      16.86846103      -0.00057490       0.01646483       0.02473915
O        1.97049401       3.94093312      11.97150458      -0.00003522       0.18955561      -0.07370967
O        0.00009646       1.18228938      16.87557447       0.00024194       0.00366768       0.00786860
O        1.97043419       1.97038596       9.97320866       0.00016404       0.01949770      -0.01963114
O        0.00006661       3.15271182      14.92269196      -0.00015581      -0.05499718       0.04416024
10
Lattice="3.940949890606662 0.0 0.0 0.0 3.940949890606662 0.0 0.0 0.0 26.940967945119528" Properties=species:S:1:pos:R:3:forces:R:3 tau=tau53 tau_p=5 tau_q=3 stage=B constraint=xy_fixed_z_free force_label=raw_dft energy=-15499.227707811531 free_energy=-15499.227707811531 stress="0.009154031423538532 -0.0 -9.181576151994517e-07 -0.0 0.010107079028115565 0.0018858957416196737 -9.181576151994517e-07 0.0018858957416196737 -0.0022044964340938835" pbc="T T T"
Sr       0.00003612       0.00009431      10.35607376      -0.00015427      -0.00157969      -0.27577138
Sr       1.97037695       1.18227095      15.30361787      -0.00020569      -0.19312559       0.11867595
Ti       1.97047269       1.97057450      11.75565136       0.00010310       0.13764786       0.05535045
Ti       3.94067571       3.15269575      16.75793903       0.00061809      -0.00439556       0.01755421
O        0.00000902       1.97050521      11.85613816      -0.00004294      -0.10049517       0.16076388
O        1.97066294       3.15276354      16.89112403      -0.00054919       0.01521785       0.01203791
O        1.97049401       3.94093312      11.95902772      -0.00003548       0.18193692      -0.10919398
O        0.00009646       1.18228938      16.90130659       0.00025223       0.00350364      -0.01793036
O        1.97043419       1.97038596       9.95014122       0.00016764       0.01779872      -0.00406620
O        0.00006661       3.15271182      14.94430023      -0.00015375      -0.05650873       0.04257978
10
Lattice="3.940949890606662 0.0 0.0 0.0 3.940949890606662 0.0 0.0 0.0 26.940967945119528" Properties=species:S:1:pos:R:3:forces:R:3 tau=tau53 tau_p=5 tau_q=3 stage=B constraint=xy_fixed_z_free force_label=raw_dft energy=-15499.23112746614 free_energy=-15499.23112746614 stress="0.009071397238170582 -0.0 -9.181576151994517e-07 -0.0 0.010374262894138606 0.0018399878608597014 -9.181576151994517e-07 0.0018399878608597014 -0.0019125223124604577" pbc="T T T"
Sr       0.00003612       0.00009431      10.33841076      -0.00015349      -0.00138762      -0.28974147
Sr       1.97037695       1.18227095      15.31916135      -0.00020723      -0.18410693       0.12469542
Ti       1.97047269       1.97057450      11.73727716       0.00010053       0.13079382       0.07163736
Ti       3.94067571       3.15269575      16.77705815       0.00059804      -0.00422124       0.00790306
O        0.00000902       1.97050521      11.83165959      -0.00004371      -0.09310325       0.20314877
O        1.97066294       3.15276354      16.90950268      -0.00053659       0.01422257       0.00661725
O        1.97049401       3.94093312      11.94670598      -0.00003831       0.17473603      -0.13447924
O        0.00009646       1.18228938      16.92153343       0.00025942       0.00326916      -0.03100956
O        1.97043419       1.97038596       9.93160874       0.00017149       0.01647846       0.00366845
O        0.00006661       3.15271182      14.96240213      -0.00015015      -0.05668125       0.03755970
10
Lattice="3.940949890606662 0.0 0.0 0.0 3.940949890606662 0.0 0.0 0.0 26.940967945119528" Properties=species:S:1:pos:R:3:forces:R:3 tau=tau53 tau_p=5 tau_q=3 stage=B constraint=xy_fixed_z_free force_label=raw_dft energy=-15499.236588382711 free_energy=-15499.236588382711 stress="0.009151276950692936 -0.0 -9.181576151994517e-07 -0.0 0.010749789358755181 0.001776634985410939 -9.181576151994517e-07 0.001776634985410939 -0.0015232234836158902" pbc="T T T"
Sr       0.00003612       0.00009431      10.31148434      -0.00015144      -0.00100093      -0.26297655
Sr       1.97037695       1.18227095      15.34070244      -0.00020749      -0.17267477       0.12238528
Ti       1.97047269       1.97057450      11.71552048       0.00009565       0.12246576       0.07296662
Ti       3.94067571       3.15269575      16.80098598       0.00058081      -0.00405077       0.00146656
O        0.00000902       1.97050521      11.80503851      -0.00004499      -0.08508809       0.22454112
O        1.97066294       3.15276354      16.93269168      -0.00052476       0.01312754       0.00517332
O        1.97049401       3.94093312      11.92841713      -0.00003857       0.16483959      -0.15999641
O        0.00009646       1.18228938      16.94627737       0.00026405       0.00311026      -0.03950886
O        1.97043419       1.97038596       9.90845493       0.00017381       0.01513403       0.01014377
O        0.00006661       3.15271182      14.98574711      -0.00014707      -0.05586262       0.02580539
10
Lattice="3.940949890606662 0.0 0.0 0.0 3.940949890606662 0.0 0.0 0.0 26.940967945119528" Properties=species:S:1:pos:R:3:forces:R:3 tau=tau53 tau_p=5 tau_q=3 stage=B constraint=xy_fixed_z_free force_label=raw_dft energy=-15499.244677782908 free_energy=-15499.244677782908 stress="0.009444169229941561 -0.0 -9.181576151994517e-07 -0.0 0.011256612362345278 0.0016857373815061933 -9.181576151994517e-07 0.0016857373815061933 -0.0010044644310282002" pbc="T T T"
Sr       0.00003612       0.00009431      10.27109471      -0.00014655      -0.00032936      -0.18375443
Sr       1.97037695       1.18227095      15.37155061      -0.00020800      -0.15800509       0.10833292
Ti       1.97047269       1.97057450      11.68803298       0.00009282       0.11267011       0.04976087
Ti       3.94067571       3.15269575      16.83259191       0.00057927      -0.00373453       0.00351675
O        0.00000902       1.97050521      11.77460388      -0.00004808      -0.07626740       0.21693991
O        1.97066294       3.15276354      16.96358181      -0.00051731       0.01172320       0.00888265
O        1.97049401       3.94093312      11.90051744      -0.00004037       0.15116904      -0.18371355
O        0.00009646       1.18228938      16.97822204       0.00026354       0.00280790      -0.04220646
O        1.97043419       1.97038596       9.87801149       0.00017098       0.01369729       0.01286246
O        0.00006661       3.15271182      15.01711310      -0.00014630      -0.05373066       0.00937913
10
Lattice="3.940949890606662 0.0 0.0 0.0 3.940949890606662 0.0 0.0 0.0 26.940967945119528" Properties=species:S:1:pos:R:3:forces:R:3 tau=tau53 tau_p=5 tau_q=3 stage=B constraint=xy_fixed_z_free force_label=raw_dft energy=-15499.254374287433 free_energy=-15499.254374287433 stress="0.009991391168600434 -0.0 -9.181576151994517e-07 -0.0 0.011883714013526505 0.0015507682120718738 -9.181576151994517e-07 0.0015507682120718738 -0.00030850095870701576" pbc="T T T"
Sr       0.00003612       0.00009431      10.21051026      -0.00013961       0.00035250      -0.04345370
Sr       1.97037695       1.18227095      15.41773443      -0.00020389      -0.13829321       0.07570690
Ti       1.97047269       1.97057450      11.64949127       0.00008305       0.10179280       0.00800024
Ti       3.94067571       3.15269575      16.87778692       0.00056333      -0.00480899      -0.00795396
O        0.00000902       1.97050521      11.73601058      -0.00004551      -0.06585058       0.17611902
O        1.97066294       3.15276354      17.00794177      -0.00051114       0.00974937       0.01925371
O        1.97049401       3.94093312      11.85622256      -0.00004011       0.13218041      -0.20075816
O        0.00009646       1.18228938      17.02283111       0.00026457       0.00237339      -0.03505391
O        1.97043419       1.97038596       9.83488084       0.00017072       0.01201142       0.00575541
O        0.00006661       3.15271182      15.06191023      -0.00014090      -0.04950685       0.00238444
10
Lattice="3.940949890606662 0.0 0.0 0.0 3.940949890606662 0.0 0.0 0.0 26.940967945119528" Properties=species:S:1:pos:R:3:forces:R:3 tau=tau53 tau_p=5 tau_q=3 stage=B constraint=xy_fixed_z_free force_label=raw_dft energy=-15499.26044133758 free_energy=-15499.26044133758 stress="0.010650628336313639 -0.0 -9.181576151994517e-07 -0.0 0.012285867048983863 0.0013974358903335654 -9.181576151994517e-07 0.0013974358903335654 0.0003167643772438108" pbc="T T T"
Sr       0.00003612       0.00009431      10.14376120      -0.00013035       0.00086106       0.12167000
Sr       1.97037695       1.18227095      15.46988268      -0.00019746      -0.11880399       0.02303580
Ti       1.97047269       1.97057450      11.60836281       0.00007610       0.09076457      -0.05206612
Ti       3.94067571       3.15269575      16.92586900       0.00057104      -0.00507561      -0.01318333
O        0.00000902       1.97050521      11.70064210      -0.00004062      -0.05673165       0.10528719
O        1.97066294       3.15276354      17.05626782      -0.00051396       0.00797633       0.03293557
O        1.97049401       3.94093312      11.80190874      -0.00003857       0.11249630      -0.18968622
O        0.00009646       1.18228938      17.06958263       0.00025145       0.00200932      -0.01680447
O        1.97043419       1.97038596       9.78867640       0.00016558       0.01049396      -0.01227625
O        0.00006661       3.15271182      15.11036658      -0.00014372      -0.04399003       0.00108783
10
Lattice="3.940949890606662 0.0 0.0 0.0 3.940949890606662 0.0 0.0 0.0 26.940967945119528" Properties=species:S:1:pos:R:3:forces:R:3 tau=tau53 tau_p=5 tau_q=3 stage=B constraint=xy_fixed_z_free force_label=raw_dft energy=-15499.262562328897 free_energy=-15499.262562328897 stress="0.010878331424883104 -0.0 -9.181576151994517e-07 -0.0 0.012169261031853533 0.0013359193301152022 -9.181576151994517e-07 0.0013359193301152022 0.0004049075083029582" pbc="T T T"
Sr       0.00003612       0.00009431      10.12265749      -0.00013035       0.00092637       0.16457966
Sr       1.97037695       1.18227095      15.48868722      -0.00019206      -0.11182602      -0.00082378
Ti       1.97047269       1.97057450      11.59362498       0.00006865       0.08667394      -0.07022711
Ti       3.94067571       3.15269575      16.94172948       0.00059058      -0.00439684      -0.00033476
O        0.00000902       1.97050521      11.69259736      -0.00003805      -0.05449042       0.06770512
O        1.97066294       3.15276354      17.07336985      -0.00052039       0.00735001       0.03466413
O        1.97049401       3.94093312      11.77817950      -0.00003728       0.10530776      -0.16397827
O        0.00009646       1.18228938      17.08469144       0.00024451       0.00186816      -0.00704277
O        1.97043419       1.97038596       9.77284781       0.00016198       0.01011292      -0.02070792
O        0.00006661       3.15271182      15.12693482      -0.00014732      -0.04152589      -0.00383454
10
Lattice="3.940949890606662 0.0 0.0 0.0 3.940949890606662 0.0 0.0 0.0 26.940967945119528" Properties=species:S:1:pos:R:3:forces:R:3 tau=tau53 tau_p=5 tau_q=3 stage=B constraint=xy_fixed_z_free force_label=raw_dft energy=-15499.264890807013 free_energy=-15499.264890807013 stress="0.011039927165158208 -0.0 -9.181576151994517e-07 -0.0 0.011867187176452913 0.0012707301394360411 -9.181576151994517e-07 0.0012707301394360411 0.00040949829637895545" pbc="T T T"
Sr       0.00003612       0.00009431      10.10538547      -0.00012907       0.00086029       0.17725879
Sr       1.97037695       1.18227095      15.50687377      -0.00018692      -0.10484367      -0.02325511
Ti       1.97047269       1.97057450      11.57794255       0.00006171       0.08295459      -0.07390919
Ti       3.94067571       3.15269575      16.95723769       0.00059110      -0.00396258       0.00797351
O        0.00000902       1.97050521      11.68606407      -0.00003368      -0.05262560       0.03084013
O        1.97066294       3.15276354      17.09060464      -0.00051962       0.00671084       0.03275483
O        1.97049401       3.94093312      11.75207734      -0.00003445       0.09820946      -0.12519730
O        0.00009646       1.18228938      17.09919825       0.00024194       0.00170001       0.00262535
O        1.97043419       1.97038596       9.75706498       0.00015941       0.00976171      -0.02568558
O        0.00006661       3.15271182      15.14287119      -0.00015041      -0.03876504      -0.00340543
10
Lattice="3.940949890606662 0.0 0.0 0.0 3.940949890606662 0.0 0.0 0.0 26.940967945119528" Properties=species:S:1:pos:R:3:forces:R:3 tau=tau53 tau_p=5 tau_q=3 stage=B constraint=xy_fixed_z_free force_label=raw_dft energy=-15499.267834262406 free_energy=-15499.267834262406 stress="0.011151024236597341 -0.0 -9.181576151994517e-07 -0.0 0.011174896334592526 0.001178914377916096 -9.181576151994517e-07 0.001178914377916096 0.00028095623025103223" pbc="T T T"
Sr       0.00003612       0.00009431      10.08872582      -0.00013267       0.00065923       0.13816980
Sr       1.97037695       1.18227095      15.53009231      -0.00018332      -0.09559053      -0.04726228
Ti       1.97047269       1.97057450      11.55516884       0.00005888       0.07838779      -0.05474624
Ti       3.94067571       3.15269575      16.97754987       0.00059984      -0.00362191       0.01697828
O        0.00000902       1.97050521      11.67956936      -0.00002777      -0.05063325      -0.01711532
O        1.97066294       3.15276354      17.11416102      -0.00051448       0.00588963       0.02308182
O        1.97049401       3.94093312      11.71292410      -0.00003034       0.08875731      -0.04837916
O        0.00009646       1.18228938      17.11789256       0.00023551       0.00146064       0.01368830
O        1.97043419       1.97038596       9.73574645       0.00015247       0.00943543      -0.02473581
O        0.00006661       3.15271182      15.16348964      -0.00015812      -0.03474383       0.00032062
10
Lattice="3.940949890606662 0.0 0.0 0.0 3.940949890606662 0.0 0.0 0.0 26.940967945119528" Properties=species:S:1:pos:R:3:forces:R:3 tau=tau53 tau_p=5 tau_q=3 stage=B constraint=xy_fixed_z_free force_label=raw_dft energy=-15499.268997821182 free_energy=-15499.268997821182 stress="0.011046354268464604 -0.0 -9.181576151994517e-07 -0.0 0.010678173064769623 0.0011440243885385167 -9.181576151994517e-07 0.0011440243885385167 0.0001101789138239342" pbc="T T T"
Sr       0.00003612       0.00009431      10.09055520      -0.00013447       0.00046897       0.06451772
Sr       1.97037695       1.18227095      15.53568522      -0.00018229      -0.09243964      -0.04362931
Ti       1.97047269       1.97057450      11.54605577       0.00005939       0.07692406      -0.02767433
Ti       3.94067571       3.15269575      16.98366780       0.00058570      -0.00351084       0.01914778
O        0.00000902       1.97050521      11.67901101      -0.00002443      -0.05038822      -0.02754191
O        1.97066294       3.15276354      17.12213316      -0.00050419       0.00562866       0.01152600
O        1.97049401       3.94093312      11.69690833      -0.00002700       0.08555551       0.00122025
O        0.00009646       1.18228938      17.12328276       0.00023834       0.00138351       0.01314785
O        1.97043419       1.97038596       9.72871637       0.00015015       0.00942001      -0.01367750
O        0.00006661       3.15271182      15.16930435      -0.00016147      -0.03304202       0.00296320
10
Lattice="3.940949890606662 0.0 0.0 0.0 3.940949890606662 0.0 0.0 0.0 26.940967945119528" Properties=species:S:1:pos:R:3:forces:R:3 tau=tau53 tau_p=5 tau_q=3 stage=B constraint=xy_fixed_z_free force_label=raw_dft energy=-15499.269361909495 free_energy=-15499.269361909495 stress="0.010915057729491081 -0.0 -9.181576151994517e-07 -0.0 0.010545040210565702 0.0011431062309233172 -9.181576151994517e-07 0.0011431062309233172 4.4071565529573677e-05" pbc="T T T"
Sr       0.00003612       0.00009431      10.09672263      -0.00013678       0.00037872       0.01384153
Sr       1.97037695       1.18227095      15.53305485      -0.00018461      -0.09258697      -0.02625173
Ti       1.97047269       1.97057450      11.54469237       0.00005991       0.07692175      -0.00937167
Ti       3.94067571       3.15269575      16.98353696       0.00057618      -0.00352601       0.01280718
O        0.00000902       1.97050521      11.67833548      -0.00002468      -0.05052963      -0.01495045
O        1.97066294       3.15276354      17.12216054      -0.00049519       0.00563586       0.00429554
O        1.97049401       3.94093312      11.69652970      -0.00002597       0.08579668       0.01186950
O        0.00009646       1.18228938      17.12309396       0.00024297       0.00138737       0.00684402
O        1.97043419       1.97038596       9.72869256       0.00015015       0.00944958      -0.00441458
O        0.00006661       3.15271182      15.16850092      -0.00016172      -0.03292709       0.00533041
10
Lattice="3.940949890606662 0.0 0.0 0.0 3.940949890606662 0.0 0.0 0.0 26.940967945119528" Properties=species:S:1:pos:R:3:forces:R:3 tau=tau53 tau_p=5 tau_q=3 stage=B constraint=xy_fixed_z_free force_label=raw_dft energy=-15499.269457829623 free_energy=-15499.269457829623 stress="0.010857213799733516 -0.0 -9.181576151994517e-07 -0.0 0.010588193618480077 0.0011449425461537161 -9.181576151994517e-07 0.0011449425461537161 5.6007614527166554e-05" pbc="T T T"
Sr       0.00003612       0.00009431      10.09783626      -0.00013781       0.00033193      -0.00409140
Sr       1.97037695       1.18227095      15.53218046      -0.00018615      -0.09270035      -0.01154117
Ti       1.97047269       1.97057450      11.54310482       0.00006042       0.07673149      -0.00072659
Ti       3.94067571       3.15269575      16.98495620       0.00056924      -0.00357898       0.00564717
O        0.00000902       1.97050521      11.67510837      -0.00002571      -0.05021467      -0.00253022
O        1.97066294       3.15276354      17.12316122      -0.00048954       0.00564151       0.00109169
O        1.97049401       3.94093312      11.69743222      -0.00002674       0.08604222       0.00619096
O        0.00009646       1.18228938      17.12459308       0.00024708       0.00139431       0.00146399
O        1.97043419       1.97038596       9.72756176       0.00015041       0.00939970      -0.00060781
O        0.00006661       3.15271182      15.16938556      -0.00016095      -0.03304716       0.00510287
