10
Lattice="3.940949890606662 0.0 0.0 0.0 3.940949890606662 0.0 0.0 0.0 26.940967945119528" Properties=species:S:1:pos:R:3:forces:R:3 tau=tau08 tau_p=0 tau_q=8 stage=A constraint=rigid_scf force_label=raw_dft energy=-15499.787482985126 free_energy=-15499.787482985126 stress="0.008335952988395822 -9.181576151994517e-07 -9.181576151994517e-07 -9.181576151994517e-07 0.010931584566564671 -0.014004658104637238 -9.181576151994517e-07 -0.014004658104637238 -0.006142474445684332" pbc="T T T"
Sr       0.00003626       0.00009419      10.75260867      -0.00007173       0.00052373       0.15151511
Sr       3.94085176       3.15274573      14.64522241      -0.00003600       0.64156943       1.39476536
Ti       1.97047258       1.97057465      12.38212169      -0.00003265      -0.47448500      -0.38895726
Ti       1.97020066       1.18222073      16.28444791      -0.00072839       0.13181917       0.02869480
O        0.00000906       1.97050529      12.45001441      -0.00005631       0.17847904      -0.26298683
O        0.00018798       1.18228851      16.39256827       0.00047694       0.05406181      -0.04333620
O        1.97049386       3.94093294      12.44909065       0.00000206      -1.79705276      -1.13137075
O        1.97057150       3.15276425      16.37955485       0.00043092       0.00549368      -0.04262966
O        1.97043435       1.97038588      10.49176941       0.00010516      -0.29377168       0.13781139
O        1.97054155       1.18223689      14.44792112      -0.00008999       1.55336231       0.15649405
