10
Lattice="3.940949890606662 0.0 0.0 0.0 3.940949890606662 0.0 0.0 0.0 26.940967945119528" Properties=species:S:1:pos:R:3:forces:R:3 tau=tau88 tau_p=8 tau_q=8 stage=B constraint=xy_fixed_z_free force_label=raw_dft energy=-15499.052187446696 free_energy=-15499.052187446696 stress="0.010963720083096653 0.0016471747616678164 -0.010562485205254492 0.0016471747616678164 0.010650628336313639 -0.010552385471487298 -0.010562485205254492 -0.010552385471487298 -0.009480895534549538" pbc="T T T"
Sr       0.00003626       0.00009419      10.75260867      -0.00040649      -0.00030288       0.29752446
Sr       3.15266178       3.15274573      14.64522241       0.86100100       0.86046878       2.35229303
Ti       1.97047258       1.97057465      12.38212169      -0.88866787      -0.88879565      -1.36740188
Ti       1.18201068       1.18222073      16.28444791       0.09346577       0.09254583      -0.11059215
O        0.00000906       1.97050529      12.45001441      -1.23113855       0.52320741      -0.83244170
O        3.15294790       1.18228851      16.39256827      -0.00230371      -0.00736287      -0.08630242
O        1.97049386       3.94093294      12.44909065       0.52353034      -1.22769585      -0.82736300
O        1.18238152       3.15276425      16.37955485      -0.00744232      -0.00021752      -0.04847327
O        1.97043435       1.97038588      10.49176941      -0.21359105      -0.21317762       0.25206761
O        1.18235157       1.18223689      14.44792112       0.86555288       0.86133036       0.37068931
10
Lattice="3.940949890606662 0.0 0.0 0.0 3.940949890606662 0.0 0.0 0.0 26.940967945119528" Properties=species:S:1:pos:R:3:forces:R:3 tau=tau88 tau_p=8 tau_q=8 stage=B constraint=xy_fixed_z_free force_label=raw_dft energy=-15499.213010398875 free_energy=-15499.213010398875 stress="0.009533230518615907 0.0015498500544566746 -0.009639736801979043 0.0015498500544566746 0.009254110603595274 -0.00962963706821185 -0.009639736801979043 -0.00962963706821185 -0.010575339411867285" pbc="T T T"
Sr       0.00003612       0.00009431      10.75873228      -0.00105544      -0.00097291       0.30116103
Sr       3.15266193       3.15274591      14.69363693       0.72784074       0.72727690       1.75802881
Ti       1.97047269       1.97057450      12.35397848      -0.76866857      -0.76870405      -0.75690577
Ti       1.18201077       1.18222079      16.28217174       0.08824129       0.08735709      -0.04991565
O        0.00000902       1.97050521      12.43288138      -1.16883815       0.52981360      -0.71928771
O        3.15294791       1.18228858      16.39079208      -0.00454365      -0.00763001      -0.00555024
O        1.97049401       3.94093312      12.43206209       0.53002238      -1.16581993      -0.71497520
O        1.18238144       3.15276434      16.37855715      -0.00771794      -0.00267446       0.03442141
O        1.97043419       1.97038596      10.49695737      -0.20480559      -0.20445798      -0.18583188
O        1.18235158       1.18223686      14.45555047       0.80952469       0.80581176       0.33885546
10
Lattice="3.940949890606662 0.0 0.0 0.0 3.940949890606662 0.0 0.0 0.0 26.940967945119528" Properties=species:S:1:pos:R:3:forces:R:3 tau=tau88 tau_p=8 tau_q=8 stage=B constraint=xy_fixed_z_free force_label=raw_dft energy=-15499.337626427916 free_energy=-15499.337626427916 stress="0.007799748941119343 0.0014332440373263442 -0.008762896279463566 0.0014332440373263442 0.0075647005916282825 -0.008754632860926773 -0.008762896279463566 -0.008754632860926773 -0.011298847612644453" pbc="T T T"
Sr       0.00003612       0.00009431      10.76758803      -0.00028308      -0.00018872       0.19741599
Sr       3.15266193       3.15274591      14.74689258       0.61366653       0.61307338       1.14643510
Ti       1.97047269       1.97057450      12.33015070      -0.67125384      -0.67118391      -0.42421788
Ti       1.18201077       1.18222079      16.28054862       0.08158136       0.08068353       0.05077749
O        0.00000902       1.97050521      12.41142163      -1.09566456       0.52428496      -0.53575568
O        3.15294791       1.18228858      16.39042400      -0.00665119      -0.00793160       0.09144180
O        1.97049401       3.94093312      12.41073121       0.52442431      -1.09315387      -0.53224972
O        1.18238144       3.15276434      16.37936024      -0.00802133      -0.00499154       0.13198501
O        1.97043419       1.97038596      10.49259725      -0.19249618      -0.19224293      -0.39681352
O        1.18235158       1.18223686      14.46560571       0.75469797       0.75165095       0.27098167
10
Lattice="3.940949890606662 0.0 0.0 0.0 3.940949890606662 0.0 0.0 0.0 26.940967945119528" Properties=species:S:1:pos:R:3:forces:R:3 tau=tau88 tau_p=8 tau_q=8 stage=B constraint=xy_fixed_z_free force_label=raw_dft energy=-15499.446756050225 free_energy=-15499.446756050225 stress="0.0049213248174690616 0.0012808298732032352 -0.007604181369081859 0.0012808298732032352 0.004759729077193958 -0.007597754265775463 -0.007604181369081859 -0.007597754265775463 -0.011942476100899269" pbc="T T T"
Sr       0.00003612       0.00009431      10.78067193       0.00202474       0.00209391      -0.05926830
Sr       3.15266193       3.15274591      14.82677607       0.47889547       0.47840954       0.30070183
Ti       1.97047269       1.97057450      12.29663974      -0.55759103      -0.55758460      -0.20901912
Ti       1.18201077       1.18222079      16.28168091       0.07184459       0.07099999       0.20182003
O        0.00000902       1.97050521      12.37659730      -0.98144870       0.49707189      -0.24796439
O        3.15294791       1.18228858      16.39387400      -0.00926497      -0.00818716       0.25443920
O        1.97049401       3.94093312      12.37612915       0.49717679      -0.97978571      -0.24565811
O        1.18238144       3.15276434      16.38516804      -0.00830158      -0.00791694       0.29137027
O        1.97043419       1.97038596      10.47508458      -0.17151006      -0.17128638      -0.46138163
O        1.18235158       1.18223686      14.48269826       0.67817474       0.67618522       0.17496048
10
Lattice="3.940949890606662 0.0 0.0 0.0 3.940949890606662 0.0 0.0 0.0 26.940967945119528" Properties=species:S:1:pos:R:3:forces:R:3 tau=tau88 tau_p=8 tau_q=8 stage=B constraint=xy_fixed_z_free force_label=raw_dft energy=-15499.481406482211 free_energy=-15499.481406482211 stress="0.003124490364523734 0.0011862596388376916 -0.006900872635839079 0.0011862596388376916 0.003017984081160598 -0.006896281847763082 -0.006900872635839079 -0.006896281847763082 -0.011759762735474579" pbc="T T T"
Sr       0.00003612       0.00009431      10.78529463       0.00382426       0.00388622      -0.26885203
Sr       3.15266193       3.15274591      14.87893285       0.40538969       0.40503591      -0.18681044
Ti       1.97047269       1.97057450      12.27057738      -0.49599511      -0.49603753      -0.16325425
Ti       1.18201077       1.18222079      16.28834502       0.06652575       0.06570788       0.27947146
O        0.00000902       1.97050521      12.35074419      -0.90108630       0.46800145      -0.07503893
O        3.15294791       1.18228858      16.40335232      -0.01061788      -0.00807121       0.34912650
O        1.97049401       3.94093312      12.35046378       0.46812538      -0.90005297      -0.07372947
O        1.18238144       3.15276434      16.39698424      -0.00818074      -0.00950948       0.37821570
O        1.97043419       1.97038596      10.45362158      -0.15515759      -0.15495910      -0.37091403
O        1.18235158       1.18223686      14.49700399       0.62717254       0.62599883       0.13178549
10
Lattice="3.940949890606662 0.0 0.0 0.0 3.940949890606662 0.0 0.0 0.0 26.940967945119528" Properties=species:S:1:pos:R:3:forces:R:3 tau=tau88 tau_p=8 tau_q=8 stage=B constraint=xy_fixed_z_free force_label=raw_dft energy=-15499.502503604179 free_energy=-15499.502503604179 stress="0.002722337329066374 0.001123824921004129 -0.006531773274528899 0.001123824921004129 0.002652557350311216 -0.0065299369592985 -0.006531773274528899 -0.0065299369592985 -0.01090220352287829" pbc="T T T"
Sr       0.00003612       0.00009431      10.78067158       0.00476503       0.00481516      -0.36812052
Sr       3.15266193       3.15274591      14.90406758       0.36966139       0.36942587      -0.35579028
Ti       1.97047269       1.97057450      12.25054395      -0.46687171      -0.46695887      -0.13688193
Ti       1.18201077       1.18222079      16.29903651       0.06472855       0.06401481       0.29839015
O        0.00000902       1.97050521      12.33432475      -0.85260583       0.44669498      -0.01467611
O        3.15294791       1.18228858      16.41742206      -0.01106037      -0.00785832       0.35678967
O        1.97049401       3.94093312      12.33418182       0.44683947      -0.85199802      -0.01408862
O        1.18238144       3.15276434      16.41306310      -0.00791231      -0.01018054       0.37711578
O        1.97043419       1.97038596      10.43357978      -0.14395504      -0.14376838      -0.27043300
O        1.18235158       1.18223686      14.50842883       0.59641083       0.59581331       0.12769512
10
Lattice="3.940949890606662 0.0 0.0 0.0 3.940949890606662 0.0 0.0 0.0 26.940967945119528" Properties=species:S:1:pos:R:3:forces:R:3 tau=tau88 tau_p=8 tau_q=8 stage=B constraint=xy_fixed_z_free force_label=raw_dft energy=-15499.532076527994 free_energy=-15499.532076527994 stress="0.0029197412163342565 0.001044863366096976 -0.006159001282757922 0.001044863366096976 0.0028931146454934725 -0.006158083125142723 -0.006159001282757922 -0.006158083125142723 -0.00939367056110559" pbc="T T T"
Sr       0.00003612       0.00009431      10.76772747       0.00551142       0.00556824      -0.43713485
Sr       3.15266193       3.15274591      14.92650691       0.33596116       0.33589097      -0.43176304
Ti       1.97047269       1.97057450      12.22430683      -0.43958254      -0.43975300      -0.09160378
Ti       1.18201077       1.18222079      16.31724191       0.06388677       0.06334838       0.29879690
O        0.00000902       1.97050521      12.31492992      -0.79793441       0.42046304       0.01377160
O        3.15294791       1.18228858      16.44053331      -0.01123495      -0.00758733       0.32022833
O        1.97049401       3.94093312      12.31495487       0.42062913      -0.79782617       0.01348466
O        1.18238144       3.15276434      16.43884677      -0.00754439      -0.01065414       0.32811570
O        1.97043419       1.97038596      10.40593157      -0.13080307      -0.13063312      -0.14894169
O        1.18235158       1.18223686      14.52434041       0.56111087       0.56118312       0.13504617
10
Lattice="3.940949890606662 0.0 0.0 0.0 3.940949890606662 0.0 0.0 0.0 26.940967945119528" Properties=species:S:1:pos:R:3:forces:R:3 tau=tau88 tau_p=8 tau_q=8 stage=B constraint=xy_fixed_z_free force_label=raw_dft energy=-15499.572666116625 free_energy=-15499.572666116625 stress="0.003903088022212869 0.0009310118218122439 -0.005716449312231787 0.0009310118218122439 0.0039425687996664455 -0.005717367469846985 -0.005716449312231787 -0.005717367469846985 -0.006935762625216658" pbc="T T T"
Sr       0.00003612       0.00009431      10.74124327       0.00613465       0.00619147      -0.46911166
Sr       3.15266193       3.15274591      14.94996098       0.29981660       0.29994258      -0.41279113
Ti       1.97047269       1.97057450      12.18655956      -0.40935459      -0.40961813      -0.01528238
Ti       1.18201077       1.18222079      16.34821980       0.06331342       0.06301131       0.27200497
O        0.00000902       1.97050521      12.28799794      -0.72701876       0.38494479       0.01197646
O        3.15294791       1.18228858      16.47823394      -0.01098272      -0.00722274       0.23108561
O        1.97049401       3.94093312      12.28824487       0.38514971      -0.72747513       0.01056852
O        1.18238144       3.15276434      16.48031908      -0.00704354      -0.01080558       0.22154245
O        1.97043419       1.97038596      10.36527907      -0.11390655      -0.11374715      -0.00220806
O        1.18235158       1.18223686      14.54926145       0.51389205       0.51477830       0.15221573
10
Lattice="3.940949890606662 0.0 0.0 0.0 3.940949890606662 0.0 0.0 0.0 26.940967945119528" Properties=species:S:1:pos:R:3:forces:R:3 tau=tau88 tau_p=8 tau_q=8 stage=B constraint=xy_fixed_z_free force_label=raw_dft energy=-15499.615994122869 free_energy=-15499.615994122869 stress="0.005914771357114867 0.0007712523967675393 -0.005196772102028896 0.0007712523967675393 0.006053413157009985 -0.005199526574874495 -0.005196772102028896 -0.005199526574874495 -0.0034320731656155502" pbc="T T T"
Sr       0.00003612       0.00009431      10.69354343       0.00613954       0.00620202      -0.42759117
Sr       3.15266193       3.15274591      14.97425980       0.26289016       0.26323494      -0.26267984
Ti       1.97047269       1.97057450      12.13458545      -0.37422946      -0.37460742       0.07545005
Ti       1.18201077       1.18222079      16.39776410       0.06203943       0.06205306       0.21474316
O        0.00000902       1.97050521      12.25006974      -0.63725023       0.33899558      -0.02622937
O        3.15294791       1.18228858      16.53550663      -0.01007487      -0.00693812       0.08321710
O        1.97049401       3.94093312      12.25058661       0.33923264      -0.63828202      -0.02890126
O        1.18238144       3.15276434      16.54252755      -0.00657534      -0.01040063       0.05250141
O        1.97043419       1.97038596      10.30847998      -0.09405121      -0.09388820       0.14936772
O        1.18235158       1.18223686      14.58799668       0.45187909       0.45363079       0.17012193
10
Lattice="3.940949890606662 0.0 0.0 0.0 3.940949890606662 0.0 0.0 0.0 26.940967945119528" Properties=species:S:1:pos:R:3:forces:R:3 tau=tau88 tau_p=8 tau_q=8 stage=B constraint=xy_fixed_z_free force_label=raw_dft energy=-15499.6386783488 free_energy=-15499.6386783488 stress="0.008163339356738325 0.0006243471783356271 -0.004792782751341138 0.0006243471783356271 0.008392878760538187 -0.004796455381801935 -0.004792782751341138 -0.004796455381801935 -0.0004333703943741412" pbc="T T T"
Sr       0.00003612       0.00009431      10.63834595       0.00535304       0.00542554      -0.29971530
Sr       3.15266193       3.15274591      14.99125591       0.23867165       0.23916247      -0.05182058
Ti       1.97047269       1.97057450      12.08894137      -0.34696343      -0.34737018       0.13774917
Ti       1.18201077       1.18222079      16.44976955       0.06067623       0.06091895       0.12435346
O        0.00000902       1.97050521      12.21334276      -0.56161146       0.30003154      -0.07152706
O        3.15294791       1.18228858      16.59066596      -0.00898189      -0.00680005      -0.04115359
O        1.97049401       3.94093312      12.21403690       0.30027348      -0.56292761      -0.07491346
O        1.18238144       3.15276434      16.60142886      -0.00626166      -0.00967429      -0.08550024
O        1.97043419       1.97038596      10.25861930      -0.07937921      -0.07921903       0.20599396
O        1.18235158       1.18223686      14.62891340       0.39822300       0.40045240       0.15653365
10
Lattice="3.940949890606662 0.0 0.0 0.0 3.940949890606662 0.0 0.0 0.0 26.940967945119528" Properties=species:S:1:pos:R:3:forces:R:3 tau=tau88 tau_p=8 tau_q=8 stage=B constraint=xy_fixed_z_free force_label=raw_dft energy=-15499.64477696415 free_energy=-15499.64477696415 stress="0.009120977749391353 0.0005646669333476628 -0.0046844401527476025 0.0005646669333476628 0.009364289517419208 -0.004687194625593201 -0.0046844401527476025 -0.004687194625593201 0.0004324522367589417" pbc="T T T"
Sr       0.00003612       0.00009431      10.61136344       0.00434414       0.00441947      -0.19030869
Sr       3.15266193       3.15274591      14.99591187       0.23397784       0.23448075       0.04179431
Ti       1.97047269       1.97057450      12.07602526      -0.34098639      -0.34137102       0.12285502
Ti       1.18201077       1.18222079      16.47172653       0.06040421       0.06071506       0.06131361
O        0.00000902       1.97050521      12.19832609      -0.53421842       0.28615581      -0.06863046
O        3.15294791       1.18228858      16.60994453      -0.00850855      -0.00680931      -0.06096677
O        1.97049401       3.94093312      12.19900397       0.28638567      -0.53548366      -0.07179548
O        1.18238144       3.15276434      16.62102793      -0.00622078      -0.00924852      -0.10541086
O        1.97043419       1.97038596      10.24457467      -0.07534232      -0.07518523       0.15907107
O        1.18235158       1.18223686      14.64741566       0.38016434       0.38232638       0.11207824
10
Lattice="3.940949890606662 0.0 0.0 0.0 3.940949890606662 0.0 0.0 0.0 26.940967945119528" Properties=species:S:1:pos:R:3:forces:R:3 tau=tau88 tau_p=8 tau_q=8 stage=B constraint=xy_fixed_z_free force_label=raw_dft energy=-15499.648622340861 free_energy=-15499.648622340861 stress="0.009704925992658204 0.000522431683048488 -0.004648632005754824 0.000522431683048488 0.009920693032230076 -0.004651386478600422 -0.004648632005754824 -0.004651386478600422 0.000646382961100414" pbc="T T T"
Sr       0.00003612       0.00009431      10.58984252       0.00327019       0.00334346      -0.06976766
Sr       3.15266193       3.15274591      14.99908940       0.23397142       0.23443010       0.09091395
Ti       1.97047269       1.97057450      12.07307494      -0.34085500      -0.34122396       0.06711376
Ti       1.18201077       1.18222079      16.48619580       0.06036745       0.06063150      -0.00034710
O        0.00000902       1.97050521      12.18791253      -0.51662256       0.27754056      -0.03762552
O        3.15294791       1.18228858      16.61907292      -0.00817405      -0.00699212      -0.03998374
O        1.97049401       3.94093312      12.18847653       0.27773673      -0.51768108      -0.04017709
O        1.18238144       3.15276434      16.62887612      -0.00642724      -0.00880526      -0.07871484
O        1.97043419       1.97038596      10.24143254      -0.07392667      -0.07377472       0.06583592
O        1.18235158       1.18223686      14.66134666       0.37065974       0.37253177       0.04275230
10
Lattice="3.940949890606662 0.0 0.0 0.0 3.940949890606662 0.0 0.0 0.0 26.940967945119528" Properties=species:S:1:pos:R:3:forces:R:3 tau=tau88 tau_p=8 tau_q=8 stage=B constraint=xy_fixed_z_free force_label=raw_dft energy=-15499.649781953987 free_energy=-15499.649781953987 stress="0.00969574441650621 0.0005132501068964935 -0.004661486212367616 0.0005132501068964935 0.009871112521009306 -0.004663322527598015 -0.004661486212367616 -0.004663322527598015 0.0003773627798469746" pbc="T T T"
Sr       0.00003612       0.00009431      10.58381423       0.00274491       0.00281690      -0.01574364
Sr       3.15266193       3.15274591      15.00149662       0.23539761       0.23578559       0.07246294
Ti       1.97047269       1.97057450      12.07678255      -0.34295379      -0.34329447       0.02088610
Ti       1.18201077       1.18222079      16.48792469       0.06022526       0.06039804      -0.02138644
O        0.00000902       1.97050521      12.18562888      -0.51280473       0.27590662      -0.00734436
O        3.15294791       1.18228858      16.61760539      -0.00816737      -0.00712401      -0.00756341
O        1.97049401       3.94093312      12.18607134       0.27607529      -0.51364908      -0.00931074
O        1.18238144       3.15276434      16.62565302      -0.00661005      -0.00863736      -0.03952017
O        1.97043419       1.97038596      10.24554384      -0.07442855      -0.07427788       0.00550370
O        1.18235158       1.18223686      14.66479940       0.37052142       0.37207514       0.00201574
10
Lattice="3.940949890606662 0.0 0.0 0.0 3.940949890606662 0.0 0.0 0.0 26.940967945119528" Properties=species:S:1:pos:R:3:forces:R:3 tau=tau88 tau_p=8 tau_q=8 stage=B constraint=xy_fixed_z_free force_label=raw_dft energy=-15499.650083047949 free_energy=-15499.650083047949 stress="0.009526803415309511 0.0005160045797420919 -0.004667913315674012 0.0005160045797420919 0.009669117845665426 -0.0046688314732892125 -0.004667913315674012 -0.0046688314732892125 0.00012946022374312269" pbc="T T T"
Sr       0.00003612       0.00009431      10.58408372       0.00258704       0.00265801      -0.00490232
Sr       3.15266193       3.15274591      15.00399283       0.23558453       0.23590823       0.03681511
Ti       1.97047269       1.97057450      12.07967631      -0.34364336      -0.34395267      -0.00030236
Ti       1.18201077       1.18222079      16.48576402       0.05997458       0.06006920      -0.01717214
O        0.00000902       1.97050521      12.18602565      -0.51303047       0.27616450       0.00745389
O        3.15294791       1.18228858      16.61489328      -0.00828178      -0.00714998       0.01131080
O        1.97049401       3.94093312      12.18638061       0.27631980      -0.51371747       0.00587703
O        1.18238144       3.15276434      16.62152633      -0.00668461      -0.00862142      -0.01527312
O        1.97043419       1.97038596      10.24869818      -0.07490421      -0.07475200      -0.01388241
O        1.18235158       1.18223686      14.66427905       0.37207848       0.37339334      -0.00992446
10
Lattice="3.940949890606662 0.0 0.0 0.0 3.940949890606662 0.0 0.0 0.0 26.940967945119528" Properties=species:S:1:pos:R:3:forces:R:3 tau=tau88 tau_p=8 tau_q=8 stage=B constraint=xy_fixed_z_free force_label=raw_dft energy=-15499.650163185475 free_energy=-15499.650163185475 stress="0.009438660284250364 0.0005187590525876902 -0.0046587317395220176 0.0005187590525876902 0.009559857089456692 -0.004659649897137217 -0.0046587317395220176 -0.004659649897137217 6.151656021836326e-05" pbc="T T T"
Sr       0.00003612       0.00009431      10.58434785       0.00255979       0.00263050      -0.00604389
Sr       3.15266193       3.15274591      15.00627809       0.23462216       0.23490653       0.01362042
Ti       1.97047269       1.97057450      12.07992247      -0.34273551      -0.34302733      -0.00468789
Ti       1.18201077       1.18222079      16.48471087       0.05975681       0.05978612      -0.00865562
O        0.00000902       1.97050521      12.18606717      -0.51254196       0.27590559       0.00960590
O        3.15294791       1.18228858      16.61456640      -0.00838180      -0.00711964       0.01536980
O        1.97049401       3.94093312      12.18636506       0.27605215      -0.51312226       0.00828178
O        1.18238144       3.15276434      16.62022810      -0.00668872      -0.00863119      -0.00745954
O        1.97043419       1.97038596      10.24889852      -0.07481190      -0.07465404      -0.01220631
O        1.18235158       1.18223686      14.66393544       0.37216924       0.37332598      -0.00782490
