10
Lattice="3.940949890606662 0.0 0.0 0.0 3.940949890606662 0.0 0.0 0.0 26.940967945119528" Properties=species:S:1:pos:R:3:forces:R:3 tau=tau23 tau_p=2 tau_q=3 stage=A constraint=rigid_scf force_label=raw_dft energy=-15498.235342248014 free_energy=-15498.235342248014 stress="0.009619537334444655 0.0019079315243844606 0.006841192390851115 0.0019079315243844606 0.014479345591695354 0.012762390851272377 0.006841192390851115 0.012762390851272377 -0.01570416785037142" pbc="T T T"
Sr       0.00003626       0.00009419      10.75260867      -0.00361394       0.00622310       0.40483588
Sr       0.78809185       1.18227078      14.64522241      -1.03342818      -1.04581241       3.41197731
Ti       1.97047258       1.97057465      12.38212169       1.21106878       0.88911010      -2.45896167
Ti       2.75839063       3.15269568      16.28444791      -0.04643361      -0.12214386      -0.19001429
O        0.00000906       1.97050529      12.45001441       0.66881901      -0.35493334      -0.77452349
O        0.78837796       3.15276346      16.39256827       0.00978922       0.00299611      -0.08557968
O        1.97049386       3.94093294      12.44909065      -0.83230312       1.45416401      -1.44304065
O        2.75876148       1.18228930      16.37955485       0.08079589       0.01397343      -0.12695542
O        1.97043435       1.97038588      10.49176941       0.14877508       0.22282954       0.32654501
O        2.75873153       3.15271183      14.44792112      -0.20346862      -1.06640720       0.93571674
